Cs2 Na2
1.0
   6.4664897569149131   -0.0000010577577024   -0.0000021623019862
  -0.0000011142207807    8.3315834338774994   -1.1317129217178865
  -0.0000025242844003   -1.0501084963359608    5.0806069327819419
Cs Na
2 2
direct
  -0.0000003302669639    0.0002453808141089    0.3712150234868084 Cs
   0.5000004100894706    0.5669960434633091    0.6465070936591713 Cs
   0.0000000422217112    0.4167486444565280    0.0500164225714973 Na
   0.4999998787557441    0.1357449307229902    0.9539464662503299 Na
