Rb1 Na1 Sc1 F1
1.0
   3.3447020224326334   -0.8204592662402135    0.1355735526452853
  -0.5952128574683616    7.5332964531198314   -0.3347744142064886
   0.0770389056685347   -0.3655445402933175    6.6514527960702186
Rb Na Sc F
1 1 1 1
direct
  -0.0890762401696406    0.5100545899734926    0.2431235733166246 Rb
   0.0513975742659216   -0.0119147981758327   -0.0040337455659505 Na
   0.0703272565302269    0.0405131848646817    0.5079411993568802 Sc
   0.1852934023280760    0.2113470315035039    0.2925659757586583 F
