Na1 Cu1 Ag1 Bi1 As1
1.0
   4.5139926558417329   -0.0003216168907241   -0.0055990164146508
  -0.0002005923313657    6.2813082857339495   -0.0034385449769772
  -0.0052179106703087   -0.0039545601001896    5.4009201288507267
Na Cu Ag Bi As
1 1 1 1 1
direct
   0.0001393243839599    0.4968510603499905    0.3790688509573213 Na
   0.0002266034239228    0.0038069111391181    0.8855973745379789 Cu
   0.0062400036223113    0.0105510122127506    0.3992769410330139 Ag
  -0.0055868070684298   -0.0110306999561308    0.3621007483569930 Bi
   0.4989808757898482   -0.0001782836222053    0.7086980845463760 As
