K1 Rb1 Sc1 S3 O2
1.0
   6.9407371106540321   -0.4692299340172691    0.3058132098245944
  -0.3641145277071240    4.8290997688556816   -0.1943267950955202
   0.2337521571787939   -0.2352721688733746    6.4479232807028399
K Rb Sc S O
1 1 1 3 2
direct
  -0.0715292150110402   -0.0317406100368804    0.0368640715100287 K
   0.3579207286512180    0.8503869378109925    0.4730712715059627 Rb
   0.7920857422332340    0.4611830366466138    0.5160133162832525 Sc
  -0.1059184877140014   -0.0115300454288852    0.5504111593771662 S
   0.4947849804156012    0.5619332075371362    0.8832692513363933 S
   0.5645569461494484    0.3174088378171059    0.1106315075611366 S
  -0.2176704488025637    0.4511334248514963    0.2069353135248105 O
   0.5191027560674503    0.4018582248035076    0.6357500878695905 O
