V1 Ag1 B1 O1
1.0
   6.0309969618416872    0.0089484204547245   -0.0502886235492145
   0.0024376962217686    2.8997098170856321    0.6725058847395793
  -0.0480823749983679    0.5786588978067084    6.4577189880243058
V Ag B O
1 1 1 1
direct
  -0.0343519530874483    0.2484596498916791    0.5597917776812934 V
   0.0035022700453965   -0.3277990375659416    0.0521466136320185 Ag
  -0.0482531646271078   -0.0165420036138957    0.3109556077523335 B
   0.1022368525710782    0.6812493972296857    0.7144320112118830 O
