Li4 Bi1
1.0
   4.6634502960205708    0.0000003968852246   -0.0000007692455843
   0.0000004883148622    5.5198085907650309    1.0700213172899111
  -0.0000008928586656    0.9889819237708366    4.6279800036275418
Li Bi
4 1
direct
  -0.0000000252876292    0.5694367884102340    0.6231706920272185 Li
   0.0000003751139606   -0.1423736713498394    1.0012284281682695 Li
   0.0000001842252490    0.2257453795597773    0.3385884418971939 Li
   0.4999999144983429    0.2223172874571809    0.8784743565416951 Li
   0.4999995510676075    0.5563582218862388    0.2227180851690140 Bi
