Ba3 Te2 S1
1.0
   5.8128104971569661    0.0000000001223312    0.0000000044498051
   0.0000000001122038    6.2115362653156865    0.0000000026999885
   0.0000000043306343    0.0000000026702495    6.3510294241069865
Ba Te S
3 2 1
direct
   0.0000000001246989    0.0000000005060119    0.8415984721525100 Ba
   0.5000000084684674    0.4999999999951636    0.3088515117118254 Ba
   0.0000000001708410    0.4999999999989692    0.4796336754228996 Ba
   0.4999999914793822    0.4999999999984719    0.2696172489732972 Te
  -0.0000000001375116    0.5000000000121334   -0.0044540786436385 Te
  -0.0000000000438784   -0.0000000003522589    0.3397481700430829 S
