Cs1 Na1 Cd1 Sb1
1.0
   4.3862784597957569    0.0000000000225520    0.0000000365331070
  -0.0000000000054879    4.9011973225094758    0.2305652831349567
   0.0000000273266462    0.1969209991479559    6.1448912074498079
Cs Na Cd Sb
1 1 1 1
direct
  -0.0000000027772332   -0.0438914322388629    0.9635024346036977 Cs
   0.0000000027158219    0.3639331021421834    0.4255340149835968 Na
  -0.0000000017055186   -0.0598782785299862   -0.0712440644219386 Cd
   0.5000000023403954    0.4898366089324136    0.7764486187552933 Sb
