Li2 Mg1 Bi1
1.0
   4.9020319112972981    0.0000002384406120    0.0000037255463633
   0.0000002808824361    3.7187752465238213    0.0000004947458969
   0.0000031554699203    0.0000001910677856    5.8754826183072844
Li Mg Bi
2 1 1
direct
   0.0000000219657838    0.0000000280557603    0.3994933615527351 Li
   0.5000000826992256    0.5000001089572365    0.6831284163725632 Li
  -0.0000005083195625    0.4999999405848747    0.9593257908074638 Mg
   0.5000004062369772    0.4999999222561873    0.2098164323834458 Bi
