Cs1 Rb2 Na2 As1
1.0
   5.5972293936004833    0.0424337699935232    0.0403129966629887
   0.1010291411503027    6.8389233665000990   -0.6155989477399716
  -0.0008444836573591   -0.5250765810328433    8.5261715570892616
Cs Rb Na As
1 2 2 1
direct
  -0.0414587709040095    0.0295538992001216   -0.1526828963509407 Cs
   0.4495270493308253    0.8876997321213695    0.4698717032141739 Rb
  -0.0422532266704254    0.5986063457108836    0.1384660775404014 Rb
   0.4571884362598219    0.2164655014689133    0.2142189092153560 Na
  -0.0778110959452329    0.4179642971535237    0.5503889673878235 Na
  -0.0473944083134955    0.0927562344400173    0.2912712263520193 As
