K1 Na2 Sb1
1.0
   6.0000000000000000    0.0000000000000000    0.0000000000000000
   0.0000000000000000    6.1272683413721420   -0.2262357397543336
   0.0000000000000000   -0.2429887568791022    6.6063111206480993
K Na Sb
1 2 1
direct
   0.0000000000000000    0.0306854274807729    0.5136691861269936 K
   0.0000000000000000    0.0790765826967485   -0.0197488349567172 Na
   0.0000000000000000    0.5376613690061762    0.3126897763511279 Na
   0.0000000000000000    0.5695246246720580    0.8286788724770648 Sb
