K1 Na2 P1
1.0
   4.0611499686522645   -0.0647448116682587    0.1804489728453771
  -0.2300917597360108    5.3982301771428460    1.2603065829672988
  -0.1892975271935385    1.2066379258321529    7.1928425137175083
K Na P
1 2 1
direct
  -0.1074929035822092    0.1677341389158220    0.3244012253258635 K
  -0.0060338821314466   -0.1700660345344900    0.0215129884673292 Na
  -0.0192701831203180    0.5144955614268882    0.6278956285636142 Na
   0.4661299678885112    0.6545033432385182    0.3257821636451921 P
