K1 Cu1 Mo1 F2
1.0
   5.6625516911661062    0.1613693156104798    0.2008861829405971
   0.1090786943422458    3.6685400587588415   -0.0565465810059973
   0.1827503300783084   -0.0315144126876500    6.2481667036934976
K Cu Mo F
1 1 1 2
direct
   0.3616106468918515    0.4470473981907958    0.1723496395281265 K
  -0.1618315986384624   -0.0305183471489601   -0.0629196260874277 Cu
  -0.1108228892708406    0.4570926500120117    0.6542668497405579 Mo
   0.2349530893493318    0.3999626360781602    0.5837292270064902 F
   0.0646437558596653   -0.0303103381332141    0.1594259010941471 F
