K2 Mg1 Bi1 As1
1.0
   5.1393281687488788   -0.0000000208280061    0.0000037924764533
  -0.0000000226900661    4.6760232380381170    0.0000000492009996
   0.0000026356798149    0.0000000324284960    7.4658804438848048
K Mg Bi As
2 1 1 1
direct
   0.0000001388988445   -0.0000000007370737    0.3649690938645576 K
   0.4999999584360019    0.4999999993990844    0.6714585052224800 K
  -0.0000009475377341    0.4999999868941817    0.9825372440260309 Mg
   0.5000009447659652    0.5000000110850314    0.1667171543878583 Bi
  -0.0000000919004584    0.0000000018536440    0.8187539921153384 As
