Rb2 Na2 Cd1 As1
1.0
   6.1482414604024385   -0.3655034347538652   -0.0631930663626427
  -0.3590668886104064    5.9682107107222357    0.0185155479503363
  -0.0644832306275057    0.0208444781120927    6.1445904193423626
Rb Na Cd As
2 2 1 1
direct
  -0.0572216433785966    0.0509359268674696    0.4798966031815465 Rb
   0.3276805996601359    0.6736122890584880    1.0518929158535320 Rb
   0.3614631566510618    0.6651367741805855    0.5026738498832202 Na
   0.5013730224357620    0.2116457753461042    0.6852873107615743 Na
   0.3374644082708821    0.6688918044275889    0.0901517619734459 Cd
   0.3625724554453226    0.6688254286485443    0.5253975598288423 As
