Cs1 Na1 Sc1 F1
1.0
   6.5358962363800721    0.0000000000000000   -0.0000000060666289
   0.0000000000000000    6.0000000000000000    0.0000000000000000
  -0.0000000028010473    0.0000000000000000    9.5895335538899218
Cs Na Sc F
1 1 1 1
direct
   0.4999999998286406    0.0000000000000000    0.4830260938078391 Cs
   0.0000000023192407    0.0000000000000000    0.0814169026351638 Na
   0.4999999978844666    0.0000000000000000   -0.0179799126007479 Sc
   0.4999999999955145    0.0000000000000000    0.1805019144622882 F
