Ba2 Sr2 Sb1 Te1
1.0
   6.2566429974570141    0.0000000000983870   -0.0000000009376223
   0.0000000001138013    5.8935597677952298   -0.0034042479854403
  -0.0000000009427181   -0.0033063444489923    5.9095764693607142
Ba Sr Sb Te
2 2 1 1
direct
  -0.0000000000510381    0.5026341469930889    1.0168802407917725 Ba
  -0.0000000000082821    0.5087590208583329    0.7361001247193825 Ba
   0.0000000000001167    0.3624675163142850    0.4891115609049124 Sr
  -0.0000000000328434    0.3686200190865120   -0.0214979412477650 Sr
  -0.0000000000050933   -0.0162704284805008    0.4513334036366173 Sb
   0.5000000001296770    0.5031077274017292    0.3241306080029518 Te
