Li1 Bi1 Te1 Pd1
1.0
   6.0000000000000000    0.0000000000000000    0.0000000000000000
   0.0000000000000000    5.9932258359865447   -0.0000000046184488
   0.0000000000000000   -0.0000000047675476    6.1276776998119091
Li Bi Te Pd
1 1 1 1
direct
   0.0000000000000000   -0.0000000000326123    0.4898835197531859 Li
   0.0000000000000000    0.4999999999895231    0.1097175601372814 Bi
   0.0000000000000000    0.4999999966586844    0.2792102657485004 Te
   0.0000000000000000    0.5000000033243638    0.2808356525963103 Pd
