Rb1 Te2 S1
1.0
   6.0000000000000000    0.0000000000000000    0.0000000000000000
   0.0000000000000000    6.9193480095280151    0.0729983176776282
   0.0000000000000000    0.0560147775760429    6.6665654179274867
Rb Te S
1 2 1
direct
   0.0000000000000000    0.6213655150119817    0.0940701007997859 Rb
   0.0000000000000000    0.1207635313165991   -0.0876747764117977 Te
   0.0000000000000000    0.3642345501271345    0.5838211180036973 Te
   0.0000000000000000    0.1389323986420541    0.3027505564181668 S
