Ba2 Zn1 N1
1.0
   5.0826119720671006   -0.0568449299148150   -0.0230229484473778
  -0.0664393748156668    6.9716240891448891    0.1317782074389769
  -0.0257371258319084    0.1903599397351053    4.5108831629510409
Ba Zn N
2 1 1
direct
  -0.0082054078399491    0.0066754519762366    0.0899121862806284 Ba
   0.4749377326943223    0.4399944683628452    0.5071971386526442 Ba
   0.0001996048549093    0.5054465838405851   -0.0215410977164626 Zn
   0.2616300721021869    0.3091274903503656    0.0261907746604093 N
