Na1 Ga1 Ag1 P1
1.0
   3.4545145216259270   -0.6826618385415916    0.0452013580896179
  -0.6826630864004746    3.4545111075147799   -0.0452052812616533
   0.0170270546684812   -0.0170280668680288    8.5640630029347449
Na Ga Ag P
1 1 1 1
direct
   0.4127286466103411    0.5872720700143917    0.6931783613705432 Na
   0.2854125590882686    0.7145874563011441    0.3270719779335866 Ga
   0.3744101630512738    0.6255892745884009    0.0410599835930263 Ag
  -0.0725523753641419    0.0725522007404118    0.4514016828792470 P
