Rb2 Te1 O1
1.0
   5.1621212409393387   -0.2621639702946598   -0.1566540580134676
  -0.2621613982042606    5.1620939559505530    0.1566363703861356
  -0.1320392080476639    0.1320262003361448    7.1108673471610295
Rb Te O
2 1 1
direct
  -0.0570271246327128    0.0570294202999893    0.1569468682658442 Rb
   0.5106567868517660    0.4893420126891569    0.5972995403201105 Rb
   0.0463285034994635   -0.0463292960563613    0.6890543533933324 Te
   0.1667078277708123    0.8332918656254427    0.4550962289844817 O
