Ba1 Al1 Te1 O1
1.0
   6.0000000000000000    0.0000000000000000    0.0000000000000000
   0.0000000000000000    4.7184894174213046    0.0000983805981878
   0.0000000000000000    0.0000614185404117    8.0466535320828960
Ba Al Te O
1 1 1 1
direct
   0.0000000000000000    0.5001190358288334    0.0865342307920870 Ba
   0.0000000000000000    0.5001295304129533    0.5840721055380295 Al
   0.0000000000000000    0.0000415280968713    0.4016706795537475 Te
   0.0000000000000000    0.4997099055605088    0.7948919882475053 O
