Cs1 Rb1 Li2 Bi1 Sb1
1.0
   5.1086202295372711    0.0000004852187871   -0.0000006018344451
   0.0000003424964946    7.4584860081311630    0.0836416713725507
  -0.0000004142995968    0.0659211116918153    7.3310574470286110
Cs Rb Li Bi Sb
1 1 2 1 1
direct
   0.5000000388199725    0.5364446409327932    0.6468527641580025 Cs
   0.0000000041952309    0.0043119875221996    0.4300212218634437 Rb
  -0.0000000653043077   -0.0632197460848395    0.9326266097254650 Li
   0.4999999919540209    0.1928119255341114    0.0936745632600403 Li
   0.4999998254544860    0.8001506693388916    0.1179569294218406 Bi
   0.5000002053352989    0.0229055109252637    0.7774398927141641 Sb
