Ba1 Si2 Pt1
1.0
   6.0000000000000000    0.0000000000000000    0.0000000000000000
   0.0000000000000000    5.1075505737403368    0.0110163180793920
   0.0000000000000000    0.0109280102237249    4.9980685458744141
Ba Si Pt
1 2 1
direct
   0.0000000000000000    0.5011875203239643    0.2455355567962876 Ba
   0.0000000000000000    0.5008305471332163    0.2444964990774952 Si
   0.0000000000000000    0.0012083414446831    0.5905486409453403 Si
   0.0000000000000000   -0.0032264094926631    1.0491663022417981 Pt
