Rb2 Te1 O1
1.0
   3.6234118733098208    0.0930238906655048    0.0232609182425526
   0.1680446915457011    3.2868777380731862    0.9661150280839410
   0.0186764652575930    0.8656535607492690   10.5269835384332282
Rb Te O
2 1 1
direct
  -0.0953716400993854    0.0188923800731184    0.0091749626843422 Rb
   0.4292236887325180    0.6463954537158163    0.3427328650228644 Rb
   0.3972462655964923    0.7062868012633460    0.7020031074507466 Te
  -0.0603302983543809    0.2948643356998987    0.2124180948545101 O
