Ba3 Te1 Se1 O1
1.0
   4.5968619683614804    0.0879087112680106    1.0621662265863492
   0.2731789297033821    6.7730870358681710   -1.2535414959344950
   0.5436998489625270   -1.0427208125718903    8.2432166893856920
Ba Te Se O
3 1 1 1
direct
   0.0252456560285042   -0.0187709504192883    0.8445602948365526 Ba
   0.3298369307829736    0.8482886341453497    0.2361072751703766 Ba
   0.7367933744442858    0.3369416384564910    0.4134022093335064 Ba
   0.3876153124764705    0.3291089702269630    0.0939761742473848 Te
  -0.3261267366963367   -0.1529093096435639    0.5454210985839408 Se
  -0.1533645520230335   -0.0076289863796299    0.1683079190509970 O
