Ba3 Te2 S1
1.0
   5.3139959615277048    0.0000000106886373    0.0000000078250526
   0.0000000136372615    8.1218884604928441    1.6030487119791417
   0.0000000080826097    1.1602721633595667    6.6599018713436742
Ba Te S
3 2 1
direct
   0.4999999979497799    0.3683231262768009    0.3116855737308806 Ba
   0.0000000014065365   -0.0085795824171264    1.0189344941431113 Ba
   0.4999999979649997    0.7552806141514785    0.6363896174950501 Ba
   0.4999999997565472    0.3198162223901744    0.8351459850124845 Te
  -0.0000000006076235    0.0558945261540099    0.4885826030688897 Te
   0.4999999990132206   -0.2357109116524984    0.1309157311584601 S
