Rb1 Ba2 Te2 S1
1.0
   5.9744771364675247   -0.0001147869000442   -0.0000240447238665
  -0.0001143961726081    5.8880532220809378    0.0000329411941923
  -0.0000265432445156    0.0000300876089972    6.2150644972230538
Rb Ba Te S
1 2 2 1
direct
   0.0000164426397331    0.4999654278412537   -0.0446042582903086 Rb
   0.5000163250498493    0.5000039304791479    0.6325485963174406 Ba
   0.0003652575599630    0.0001168945075494    0.3311098890967116 Ba
  -0.0019115926349745   -0.0007316145176518    0.2672758615692636 Te
   0.0000033362317654    0.4999693197638163    0.3996267611358493 Te
   0.0015102320262768    0.0006760418996892    0.2707951480833272 S
