Rb1 Te1 Rh1 O1
1.0
   6.0000000000000000    0.0000000000000000    0.0000000000000000
   0.0000000000000000    4.5936076733450495    0.0000002330974100
   0.0000000000000000    0.0000002182863711    5.0097726537833038
Rb Te Rh O
1 1 1 1
direct
   0.0000000000000000    0.0000002718043454    0.5890051739982487 Rb
   0.0000000000000000    0.5000000484470691    0.2498043898071532 Te
   0.0000000000000000   -0.0000004290774030    0.5344387075013557 Rh
   0.0000000000000000    0.5000001084466300    0.8547047342979549 O
