K1 Rb1 Te1 O1
1.0
   5.7630719810007802    1.3607344700236830    0.0922996713550584
   1.4532921757034190    5.8428238692635563   -1.4739202593765395
   0.0600504438700651   -1.3753874683908587    5.2612771412382049
K Rb Te O
1 1 1 1
direct
  -0.0102969766884809    0.0434668915111509    0.6261739049516158 K
   0.4933783220906024    0.0474743674973692    0.1321978233914383 Rb
   0.2015637214585632    0.5806450371825053    0.8991842138179095 Te
   0.0175239246882015   -0.0049192769067882    0.0990690237522269 O
