Cs1 Na1 Sb1 P1
1.0
   6.0208743431207106    0.0021700042030484    0.2169317227855162
   0.0024120248751247    5.3760446692593185   -0.0003696851096466
   0.2116575564862946   -0.0003967629426166    6.1876659512179302
Cs Na Sb P
1 1 1 1
direct
   0.3469143299539160    0.2521920524526877    0.5922711597330023 Cs
   0.3886828218941589    0.7500369473793383    0.1362561115375669 Na
   0.2224817493331264    0.7490131456454261    0.6524082415304747 Sb
   0.3146161007647745    0.2487578548496358    0.5657244931880675 P
