Ba2 Al1 Bi1 As1
1.0
   4.4539745893082570   -0.0000005576068619   -0.0000003963969844
  -0.0000004811147322    4.9014265562914971   -0.0000006618646380
  -0.0000002243133661    0.0000002859805456    8.0952700069710488
Ba Al Bi As
2 1 1 1
direct
   0.0000000434033557    0.4999998576385628    0.1472271148974809 Ba
   0.5000000366318753    0.5000000290296229    0.6466803180378835 Ba
   0.0000000068233374    0.0000001742622948    0.8178498506543588 Al
  -0.0000000274229107    0.0000000533878966    0.4788297230235283 Bi
   0.4999999356905680   -0.0000001109117214   -0.0364690123584817 As
