Cs1 Rb1 Li2 Bi1 Sb1
1.0
   6.0977449183206733    0.0000000077987866    0.0000000010534769
   0.0000000079235891    6.2534753050430183   -0.0387183587009558
   0.0000000008582207   -0.0393332946126067    6.3141932791581681
Cs Rb Li Bi Sb
1 1 2 1 1
direct
   0.5000000001010931    0.5688787502786790    0.5913458609709286 Cs
  -0.0000000006218536    0.0037862831062660    0.4125725704234200 Rb
   0.5000000000761271    0.3032395989188832    0.2645662420482339 Li
   0.4999999999691074    0.2894322333335357    0.9003359084910485 Li
   0.4999999998541630   -0.0947332955656140    0.1339764176085212 Bi
   0.5000000005954643   -0.0636645685933209    0.0970479994509831 Sb
