Na1 Li1 Ru1 O1
1.0
   6.0000000000000000    0.0000000000000000    0.0000000000000000
   0.0000000000000000    5.2614300979757607   -0.5009986561695120
   0.0000000000000000   -0.4339698003702741    5.7463968106517243
Na Li Ru O
1 1 1 1
direct
   0.0000000000000000   -0.0806316770198234    0.6059029785115507 Na
   0.0000000000000000    0.3677185814697905    0.1551484306154955 Li
   0.0000000000000000   -0.1914814568364127    0.0707060505034665 Ru
   0.0000000000000000    0.0892085586949753    0.2928945458972430 O
