Ba2 Te1 S1
1.0
   6.0000000000000000    0.0000000000000000    0.0000000000000000
   0.0000000000000000    5.9764736745996370   -0.0303250098866552
   0.0000000000000000   -0.0302411671323501    6.4270195552563445
Ba Te S
2 1 1
direct
   0.0000000000000000    0.5928061744901356   -0.0270095662261884 Ba
   0.0000000000000000    0.4767773203077806    0.1718182192342494 Ba
   0.0000000000000000    0.4981511214793523    0.6416840136839977 Te
   0.0000000000000000    0.5282643833055271   -0.0424966654453937 S
