Rb1 Li3 Bi1 Sb1
1.0
   5.9680256049723051   -0.0000002397679755   -0.0000000930337267
  -0.0000002400612571    6.0124075226361393   -0.0009192225111024
  -0.0000000917740294   -0.0008762747306238    6.0556565429882490
Rb Li Bi Sb
1 3 1 1
direct
   0.0000006419710629    0.0294397136384511    0.1240279400271264 Rb
  -0.0000003998687536   -0.0198650254532458    0.1514969441552458 Li
   0.5000000589269422   -0.0213802931283940    1.1005686287677923 Li
   0.5000000071163080    0.3386284546530300    0.1031861844762429 Li
  -0.0000003150123872   -0.0124084693708403    0.1085403350106579 Bi
   0.5000000069108772    0.0016266169683416    0.7049399732560626 Sb
