Cs1 Rb1 Li2 Bi1 Sb1
1.0
   7.1706233055749511    0.5029914726268899   -1.0169393052778879
   0.6161298229381816    5.1214624898149541    0.1205920129905388
  -0.7733501489050754    0.0748937728297271    7.6421564720130455
Cs Rb Li Bi Sb
1 1 2 1 1
direct
   0.0443833693411400   -0.0363730249452278    0.5936769216321927 Cs
   0.4568990413268942   -0.1463139918744065    0.2154751416482449 Rb
  -0.0441157877563834    0.4678854404578029    0.9340603113173042 Li
   0.5463283292378556    0.3232285314835717    0.8516828181062652 Li
  -0.1054977600831648   -0.0219173563388000    0.0634767153540153 Bi
   0.6083268079964914   -0.1851146156536171    0.7567780666627932 Sb
