Rb1 Ba2 Te2 S1
1.0
   6.2271622483946665    0.0290775534678417    0.0683299390904500
   0.0292615463280232    6.0517436509487741    0.0084684443245260
   0.0713995723266454    0.0087747541212503    6.5267344957886184
Rb Ba Te S
1 2 2 1
direct
   0.1593065818802599    0.5904382152503745    0.2501397639690184 Rb
   0.3173861352828689    0.0002555001325321    0.6150337164567198 Ba
  -0.0291841603438387    0.4987793404706221    0.6475263214062802 Ba
   0.1906957789171453    0.5282525338247391    0.2577770497157365 Te
  -0.0604407328580276    0.4801670176192234    0.0872695138335304 Te
  -0.1245615967661446    0.0021073960134319    0.4624726350408161 S
