Cs1 Na4 As1
1.0
   7.1401899534174884   -0.0000002629146754   -0.5232558080643837
  -0.0000002650272505    5.2562117331184401   -0.0000002637230884
  -0.5055410134035772   -0.0000002240643963    7.1044851508224731
Cs Na As
1 4 1
direct
   0.5359335470555200    0.7500000168675983    0.0962342356887547 Cs
   0.0010245294818525    0.7499999994521427    0.7271638262970126 Na
   0.6329393402975180    0.2500000390301179    0.6010127060168682 Na
   0.0816822641394325    0.7499999504566309    0.2574137356388018 Na
   0.2044476528418603    0.2499999765281535    0.5542468963302875 Na
   0.3996796522568750    0.7500000154054071    0.5820765654727658 As
