Cs1 Na1 Cu1 As1
1.0
   5.6555158377527812   -0.8721774920970954    0.4122533373105001
  -1.0324730759927334    4.9739606874715703   -0.1635261335602702
   0.0535425543137225    0.0853384152017123    4.5371781667215982
Cs Na Cu As
1 1 1 1
direct
  -0.0803577258584237    0.5442929131011622    0.9362765692261097 Cs
   0.5438546577273637    0.8250574971043462    0.4580664189675952 Na
   0.3331884555539332    0.1834368876355864   -0.1152181931324800 Cu
   0.2452146073882867    0.1972127026999576    0.3921632218462638 As
