Cs2 Na2 Bi1 Te1 O1
1.0
   6.0410467745741094   -0.0000000106297849    0.0000000001699951
  -0.0000000104792523    6.0548875009745728    0.0538486476113943
   0.0000000001782241    0.0553110745990984    6.4911684791438393
Cs Na Bi Te O
2 2 1 1 1
direct
  -0.0000000000504643   -0.0036585343700649    0.3546623675537326 Cs
   0.4999999999806301    0.4946474810592712    0.6789724434509675 Cs
   0.0000000002630211    0.1328450977388219    0.8703023565337207 Na
   0.4999999999484410    0.1404200151089576    0.1897792176368797 Na
  -0.0000000000477859    0.5355413273349514    0.1792296838476620 Bi
   0.4999999999315080    0.6620772572677990    0.1801594278950578 Te
   0.0000000001685139   -0.0215326545611745    0.2681314968176446 O
