K1 Rb2 Na1
1.0
   7.4885298542455665    0.0000000000000000    0.5835701459317415
   0.0000000000000000    6.0000000000000000    0.0000000000000000
   0.4914474811570175    0.0000000000000000   10.7766866103178280
K Rb Na
1 2 1
direct
   0.3185651724797894    0.0000000000000000    0.3507042534518875 K
   0.1892199011483288    0.0000000000000000   -0.0991264207871350 Rb
  -0.2305731157848275    0.0000000000000000    0.6065927942602719 Rb
  -0.1553699631811539    0.0000000000000000    0.2217923750794895 Na
