Ca1 Mg2 Cl2
1.0
   6.0441007253901011   -0.0700289862685377    0.1838807175324410
  -0.1432346163611710    4.4347504883144779   -1.0141249224968427
   0.1118491477156796   -0.8654082831339529    6.8029180426455849
Ca Mg Cl
1 2 2
direct
  -0.0832497758863216   -0.1745910181910123   -0.0668203502921940 Ca
   0.1197632958876347    0.5502195936948686    0.3537685358760773 Mg
  -0.1817299980036351    0.1063250107338492    0.5064196508716337 Mg
   0.1289789249006122    0.2705181179650396    0.7982254594080419 Cl
   0.2493715463776235   -0.0136086919789882    0.2136977049199231 Cl
