Rb1 Y1 In1 O2
1.0
   5.5501727314897238   -0.0534550106429102    0.1632635917739997
  -0.0534550222839276    5.5501734996074230   -0.1632630318868158
   0.1478395773335754   -0.1478390593839119    6.3008925598649235
Rb Y In O
1 1 1 2
direct
   0.4663826675104388    0.5336173568052504    0.8650801526687100 Rb
   0.0332338797527364   -0.0332336413396469    0.4203898422183076 Y
  -0.0560883642573564    0.0560881873046484   -0.0677815153076884 In
   0.2971679155718497    0.7028319283831521    0.4634824459431162 O
   0.2593029013277351    0.7406971769982226    0.2303490843668124 O
