Na2 As2
1.0
   6.7641766327780868   -0.1434330721524565   -0.1596369416138165
  -0.1531590034789869    7.7733879834382416   -0.2056409284135167
  -0.1448471256588146   -0.1568115251546036    9.5302931087650755
Na As
2 2
direct
   0.1480433371584651   -0.0179981685299225    0.3927628442072509 Na
   0.6527762009092979   -0.0828448887215354    0.4901290810767230 Na
   0.1186436334623165    0.4376699614951240    0.9107841720346850 As
   0.2537868299274871    0.3992260942424713    0.9104679039742407 As
