Cs1 Na1 Mo1 F2
1.0
   5.5641253815407001   -0.9527456899356329   -0.5057878142166299
  -0.6790423768132108    8.3798454269966598   -1.0081559736933328
  -0.3889361505769709   -1.0091418489973005    6.4041051983831894
Cs Na Mo F
1 1 1 2
direct
  -0.1277933022806927    0.4995193822828874    0.1441558874485352 Cs
   0.0998664718809833    0.0978641355065901    0.5893828003532215 Na
   0.0975316148768827    0.0230539168406201    0.0554309607604509 Mo
   0.1668676410079051    0.2383410943899346   -0.0388275616069879 F
  -0.0085274256526232   -0.1155115344252186    0.2586939295212641 F
