Rb1 Ba2 Te1 Se1 S1
1.0
   5.9447541609298176   -0.0000000023074921    0.0000000144535534
  -0.0000000022217237    5.2771416144646777    0.0000000838323341
   0.0000000115958344    0.0000000891110812    8.3197575166225466
Rb Ba Te Se S
1 2 1 1 1
direct
   0.4999999990077049    0.4999999931921658    0.3357032935452821 Rb
  -0.0000000023786376   -0.0000000414156266    0.3458761146132440 Ba
   0.0000000018862978    0.0000000058251206   -0.0976422853081169 Ba
   0.0000000004466764    0.5000000154534342    0.6156874786308080 Te
   0.4999999990080259    0.0000000108202415    0.0881239276657460 Se
  -0.0000000002175965    0.5000000189908583    0.1427984685619354 S
