Ba2 Cd1 Bi1 As1
1.0
   6.9701125778719950    0.0000000002411408    0.0000000024424285
   0.0000000002387544    6.9769577707263064    0.0000000010872101
   0.0000000023827647    0.0000000011053740    7.1825917968693602
Ba Cd Bi As
2 1 1 1
direct
   0.0000000000584011    0.0000000003481055    0.7090132779487625 Ba
   0.5000000002312426    0.4999999996880238    0.2782128192961992 Ba
  -0.0000000000279823    0.5000000003802721    0.0478066889665487 Cd
   0.4999999999110016    0.0000000000549682    0.2002259725708175 Bi
  -0.0000000001013321   -0.0000000002939920    0.7673782425106340 As
