K1 Te1 Pd1 O1
1.0
   6.0000000000000000    0.0000000000000000    0.0000000000000000
   0.0000000000000000    6.6759351136969975    0.8367995790183332
   0.0000000000000000    0.6315852966345832    4.9502525151696277
K Te Pd O
1 1 1 1
direct
   0.0000000000000000    0.2452000937430758    0.4579463925969202 K
   0.0000000000000000    0.6749754236298758    0.8189916990743062 Te
   0.0000000000000000    0.8019390403697904    0.2968525837007130 Pd
   0.0000000000000000   -0.0375625602676078   -0.0948546764855795 O
