Ba1 Na1 Bi1 As1
1.0
   3.8109736373323235    2.2245077678160081   -0.0000009657360349
   0.8638942518006187    7.7671189732407360    0.0000005927382537
  -0.0000007065218872    0.0000003975453036    4.7856991285720705
Ba Na Bi As
1 1 1 1
direct
  -0.2232218608455540    0.6567925073311378   -0.0000001294751363 Ba
   0.3280368358677232    0.1523070103403973    0.4999999422468164 Na
  -0.2319995338057386    0.1929701691481806   -0.0000001019898958 Bi
   0.4605177096472326    0.4865763035553331    0.5000002812732358 As
