Ba2 Cd1 Sb1 As2
1.0
   5.9374381100842966   -0.0000000131161113   -0.0000000040886214
  -0.0000000160294841    4.7331658595823392    0.0950447960334096
  -0.0000000005665972    0.1426428477804327    7.2958102009550352
Ba Cd Sb As
2 1 1 2
direct
  -0.0000000029730933   -0.0323765687226493    0.6742209017401973 Ba
   0.4999999990552658    0.5251429302998044    0.2406889790211502 Ba
   0.0000000049022861    0.4353960327072465    0.0512211629544266 Cd
   0.5000000011407627    0.5019466024208171    0.7294144711934524 Sb
  -0.0000000009977897   -0.0730617006625598    0.2168711112666018 As
   0.4999999999303966    0.0030146946086980    0.9063553852492798 As
