Ba3 Te2 S1
1.0
   6.0000000000000027    0.0000000000000000    0.0000000000000000
   0.0000000000000000    6.0615812998004319   -0.0000000036291392
   0.0000000000000000   -0.0000000036957796    6.1772279565479842
Ba Te S
3 2 1
direct
   0.0000000000000000   -0.0000000000434769    1.0339225049717486 Ba
   0.0000000000000000    0.5000000000026096    0.2480046737811648 Ba
   0.0000000000000000    0.4999999999995272    0.7457612962753213 Ba
   0.0000000000000000    0.5000000000020558    0.2419649445088189 Te
   0.0000000000000000    0.4999999999983739    0.2701671347490975 Te
   0.0000000000000000    0.0000000000407806    0.6037204419602593 S
