Ba3 Te2 S1
1.0
   6.0000000000000018    0.0000000000000000    0.0000000000000000
   0.0000000000000000    7.2029864191422313    0.0387579461815735
   0.0000000000000000    0.0386882115409434    7.3879528785231852
Ba Te S
3 2 1
direct
   0.0000000000000000    0.6733491559072706    0.5686772904299072 Ba
   0.0000000000000000    0.0634569480269754    0.8639940105534537 Ba
   0.0000000000000000   -0.0441276841313543    0.2484419609585756 Ba
   0.0000000000000000    0.2557036845589617    0.4746015889857432 Te
   0.0000000000000000    0.5051040480876240    0.0679786707122372 Te
   0.0000000000000000   -0.0283501420780351    0.2615754792802241 S
