Ba1 Si2 Rh1
1.0
   6.0000000000000000    0.0000000000000000    0.0000000000000000
   0.0000000000000000    4.2505373299285694    0.0000016999915276
   0.0000000000000000   -0.0000011512441870    7.0710650847702352
Ba Si Rh
1 2 1
direct
   0.0000000000000000    0.4999996828571703   -0.1973665954489881 Ba
   0.0000000000000000    0.4999998960727208    0.3216650519158780 Si
   0.0000000000000000    0.0000002058181297    1.1561907723487836 Si
   0.0000000000000000    0.0000002036346065    0.4902787620515714 Rh
