Cs1 Na1 Li2 As1
1.0
   4.8490807823395521   -0.0000006237866322   -0.0000007440793183
  -0.0000015688879599    5.1020951193858259    0.2292716533567388
  -0.0000004502722549    0.3987051868757415    5.9874922252338401
Cs Na Li As
1 1 2 1
direct
  -0.0000000726869886    0.5009676489643990    0.2518188496403837 Cs
   0.5000000750752899   -0.0169406849648114    0.4622390963250879 Na
   0.0000002834725324    0.0586224712868824   -0.1716068166556353 Li
   0.4999996891794933    0.4806729134180894    0.8334553778792123 Li
   0.5000000207368681   -0.0172723396216012    0.9586744931879666 As
