Ba1 Si2 Rh1
1.0
   6.0000000000000000    0.0000000000000000    0.0000000000000000
   0.0000000000000000    4.2492855661812783    0.0000033282847798
   0.0000000000000000   -0.0000018343041246    7.0723148566947014
Ba Si Rh
1 2 1
direct
   0.0000000000000000    0.4999996818111033   -0.1973887066451138 Ba
   0.0000000000000000    0.5000000641322430    0.3216786315352950 Si
   0.0000000000000000    0.0000001577289334    1.1563757043526981 Si
   0.0000000000000000    0.0000000994407272    0.4904073510882270 Rh
