Cs1 Pd1 Cl2
1.0
   5.8317041799218989    0.1145505385737931    0.2710499669903936
   0.1020549254530166    6.8207631467049286    0.6329464588381017
   0.2731861452239482    0.6718145363564803    6.6685901796280636
Cs Pd Cl
1 1 2
direct
  -0.0785826274720298    0.0364568943495642    0.2848153554136399 Cs
   0.1000562412061681    0.3910486097194408    0.5700266725237855 Pd
   0.0440454332385118    0.5479585844884266    0.2605244111332433 Cl
   0.0808209489838342    0.0976919284228833    0.7704015600702118 Cl
