Ba1 Si2 Pt1
1.0
   6.0000000000000000    0.0000000000000000    0.0000000000000000
   0.0000000000000000    4.1188327291021007    0.0000008930406315
   0.0000000000000000    0.0000006553387113    8.5042027473500337
Ba Si Pt
1 2 1
direct
   0.0000000000000000   -0.0000000070914839    0.6602848946278354 Ba
   0.0000000000000000    0.4999999755784335    0.1888337535120879 Si
   0.0000000000000000    0.0000001775038319    1.0310727516029741 Si
   0.0000000000000000   -0.0000001444753369    0.3216256251788285 Pt
