Rb2 Sc1 S1 O1
1.0
  10.7269264442140262   -0.1301975241193651   -1.0370958480398089
   0.0551527563742630    4.5384600643041635   -0.0102239350696001
  -0.7113703170254175    0.0080841380153502    3.8070797969710286
Rb Sc S O
2 1 1 1
direct
  -0.0085163794742118    0.0353680653525393    0.3053487061492298 Rb
   0.4992816259520413    0.5273273111571016   -0.2938168262075896 Rb
   0.2052897132347366    0.5351231350274986   -0.0602160319903286 Sc
   0.3212646929924591    0.0344337497673080    1.0178441704020993 S
   0.1461163751114681    0.5344147158008786    0.3932209679790199 O
