K1 Ba2 Te2 S1
1.0
   6.0000000000000018    0.0000000000000000    0.0000000000000000
   0.0000000000000000    6.8256091252993976   -0.2527218305954045
   0.0000000000000000   -0.2529513956241968    6.6847153069015590
K Ba Te S
1 2 2 1
direct
   0.0000000000000000    0.5410759773886750    0.2228733295569657 K
   0.0000000000000000   -0.1083026119940271    0.6367377958207350 Ba
   0.0000000000000000    0.5012593023199365    0.8089684046353981 Ba
   0.0000000000000000    0.2395636880694089    0.4219718394863824 Te
   0.0000000000000000    0.5800533687813826    0.2483612938178788 Te
   0.0000000000000000    0.0033152805424748    0.0597803403631593 S
