Rb1 Na1 Sb1 F1
1.0
   3.6121898685208533    0.0385473562913378    0.0588766291790509
   0.0385490420301193    3.6121711280997406   -0.0588767618234313
  -0.0255170521206030    0.0255173279595819    8.7900446653573994
Rb Na Sb F
1 1 1 1
direct
   0.4426918191544136    0.5573084219392441    0.9163496283666545 Rb
  -0.1094070625012254    0.1094069381331228    0.2844037037597394 Na
   0.3995938118373157    0.6004060523673650    0.5141432821737767 Sb
  -0.0662125692002328    0.0662125827210808    0.0350973662894204 F
