Cs1 Na3 Sb1
1.0
   5.0441038917411944    0.4777398369383448   -0.1936960705183357
   0.6016349140884618    7.1654652288996425    1.8554963786052814
  -0.1033084951460416    1.8262108858856081    6.4834790013406938
Cs Na Sb
1 3 1
direct
   0.1558250954353642    0.5451984943887879    0.0164741396661177 Cs
  -0.0526821001145716    0.2467480135860455    0.6094695520995311 Na
   0.0407528585339115   -0.1404421373681453    0.4146632999246997 Na
   0.5171889221626509    0.0107045537179911    0.0378994855631808 Na
   0.5076502163281731    0.0183340714913292    0.5511625196096638 Sb
