Cs1 K1 Rb1 Na3 Li1 As1
1.0
   6.6403133439552269    0.0000000004028891   -0.0000000008923493
   0.0000000002787940    6.0931845275690204   -0.0163187963915826
  -0.0000000009128779   -0.0165986184033076    6.4903954635195840
Cs K Rb Na Li As
1 1 1 3 1 1
direct
  -0.0000000006632905   -0.0338380707694224    0.7810242704326363 Cs
   0.4999999999835947    0.5195918365347921    0.5488544359670862 K
   0.4999999999993183    0.4931273243688692    0.0340036438338832 Rb
   0.5000000000258884    0.4989950878276713    0.5764671640790412 Na
  -0.0000000000607590    0.3984903289509187    0.4460677148190741 Na
   0.5000000000037980    0.5086747743677391    1.0020071843265603 Na
   0.4999999999562655    0.0058649638625433    0.3759854597040377 Li
   0.4999999999819149    0.0062677555361106    0.7864911250305127 As
