Ba2 Te1 S1
1.0
   5.7611650654889317    0.0000000002366194   -0.0318485354434812
   0.0000000002328497    5.5653783650727977    0.0000000001327212
  -0.0314968986446735    0.0000000001282641    5.2500810082742131
Ba Te S
2 1 1
direct
  -0.0094249423882660   -0.0000000000196104    0.9451396489438232 Ba
   0.2478441859192267    0.5000000003160272    0.3092331147497345 Ba
  -0.0147595281790536   -0.0000000000003846    0.4865529003789439 Te
   0.0319362843708302   -0.0000000000318150   -0.0065556573609541 S
