Sr1 Si2 Pt1
1.0
   6.0000000000000000    0.0000000000000000    0.0000000000000000
   0.0000000000000000    4.1700575005788263   -0.0000000942635679
   0.0000000000000000   -0.0000000122804258    8.4163830878773194
Sr Si Pt
1 2 1
direct
   0.0000000000000000    0.0000000023039533   -0.0075378212187928 Sr
   0.0000000000000000    0.4999999908186405    0.2747263263519741 Si
   0.0000000000000000    0.0000000142360623    0.3886655884843477 Si
   0.0000000000000000   -0.0000000070215420    0.6457118952299893 Pt
