Na1 Sr1 Si1 Rh1
1.0
   6.0000000000000000    0.0000000000000000    0.0000000000000000
   0.0000000000000000    5.9405021791957182   -0.0481288666391897
   0.0000000000000000   -0.0377991995684583    5.0955080789628866
Na Sr Si Rh
1 1 1 1
direct
   0.0000000000000000    0.0220544281632160   -0.1332435007684359 Na
   0.0000000000000000    0.5257585473351480    0.2146415762286067 Sr
   0.0000000000000000    0.0225324462032824    0.9218536192775437 Si
   0.0000000000000000    0.0267865785242653    0.3637192995307852 Rh
