Sr1 Si2 Rh1
1.0
   6.0000000000000000    0.0000000000000000    0.0000000000000000
   0.0000000000000000    5.0690783660529375    0.0000000240638609
   0.0000000000000000    0.0000000223769072    5.5641329864380484
Sr Si Rh
1 2 1
direct
   0.0000000000000000   -0.0000000176276335    0.3030643310073735 Sr
   0.0000000000000000    0.5000000405887244    0.3486216126505838 Si
   0.0000000000000000   -0.0000000024008394    0.8471651729617453 Si
   0.0000000000000000   -0.0000000207927595    0.3568268797687671 Rh
