Sr1 Si2 Rh1
1.0
   6.0000000000000000    0.0000000000000000    0.0000000000000000
   0.0000000000000000    4.0192024343863375    0.0000022484099717
   0.0000000000000000    0.0000016871871759    8.1497577801814032
Sr Si Rh
1 2 1
direct
   0.0000000000000000    0.0000002054282415    0.6542584193230115 Sr
   0.0000000000000000    0.4999999400863537    0.1863963067433345 Si
   0.0000000000000000    0.0000000088358311    1.0259539734344494 Si
   0.0000000000000000   -0.0000001554732156    0.3270293224327833 Rh
