Rb1 Y1 Sc1 S2
1.0
   4.5604215083169217   -0.2682222140299753   -0.0450706168702696
  -0.2682222322503577    4.5604215769536482    0.0450706046926980
  -0.0631090281452956    0.0631090426114872    9.5534289777814045
Rb Y Sc S
1 1 1 2
direct
   0.3878508833253418    0.6121490826842185    0.7445243343511495 Rb
  -0.0968668479701905    0.0968668700826491    0.4887663440937131 Y
   0.3921104220855248    0.6078895182480207    0.2364484281532413 Sc
   0.2663628796862252    0.7336371131310327    0.2004359864982021 S
   0.3838746649912065    0.6161254177394455    0.3322609064682993 S
