Rb1 Li1 Sc1 F1
1.0
   6.0000000000000000    0.0000000000000000    0.0000000000000000
   0.0000000000000000   10.6654111806112653   -0.7993151002450213
   0.0000000000000000   -0.4472778329525100    3.2387082633882160
Rb Li Sc F
1 1 1 1
direct
   0.0000000000000000   -0.1183779933396410   -0.1773830301784847 Rb
   0.0000000000000000    0.2349589390225181    0.4350353098861642 Li
   0.0000000000000000    0.4962894041690117    1.1179193794820996 Sc
   0.0000000000000000    0.0739016517028983    0.4630203485191441 F
