K3 Li3
1.0
   6.3085865690404184   -0.0000000027494699   -0.0000000025625092
  -0.0000000028079086    6.9848324392961407    0.5042546495266568
  -0.0000000027781756    0.5270263884996316    6.7111879427148970
K Li
3 3
direct
   0.0000000007786332   -0.0509346709449502    0.3600293851493347 K
   0.5000000012072996    0.4819417289768166    0.5886463845776752 K
   0.0000000000385887    0.5947700677479107    0.9533928460402710 K
  -0.0000000003608336    0.1286063040653677    0.8384105644572918 Li
  -0.0000000000328390    0.4099148460902206    0.4485884767185718 Li
  -0.0000000010830714   -0.0470492820822304    0.3865353362559470 Li
