Ba2 Se1 O1
1.0
   4.8606366706362714   -0.6331363798578764   -0.1608601635405641
  -0.6329143739848013    4.8592649759092499    0.1606882368580309
  -0.2313487212058538    0.2312901461989510    5.4119756930209437
Ba Se O
2 1 1
direct
   0.5951850002052134    0.4049035002540401    0.4714991749468543 Ba
  -0.0338909063688754    0.0338965499144119   -0.0018791430151938 Ba
   0.3589268682267763    0.6411433743719480    0.9214263560462478 Se
  -0.0868879590239990    0.0867235751706547    0.4502386096241298 O
