Rb1 Li2 Bi2 Sb1
1.0
   6.0000000000000027    0.0000000000000000    0.0000000000000000
   0.0000000000000000    6.1589562033825906    0.0387260642082089
   0.0000000000000000    0.0386300127309651    6.0125565711398394
Rb Li Bi Sb
1 2 2 1
direct
   0.0000000000000000    0.5084145377491643    0.0782566709902357 Rb
   0.0000000000000000    0.1266129840933241    0.1353381262211883 Li
   0.0000000000000000    0.3037502391003424    0.8880064127876958 Li
   0.0000000000000000    0.5126223126648214    0.3247454314414578 Bi
   0.0000000000000000    0.5114319852706322    0.1464817176623054 Bi
   0.0000000000000000   -0.0920560551010777    0.7739506450502117 Sb
