Cs1 Na1 Li3 Sb1
1.0
   4.6374116177141991   -0.0000003633772003   -0.0000005761154210
  -0.0000003563124260    7.1755446539621763   -0.1292640759008091
  -0.0000004622754861   -0.1523836649509789    6.0193313400919548
Cs Na Li Sb
1 1 3 1
direct
  -0.0000001359286137    0.7169070105719225    0.1236383993031393 Cs
   0.5000000064135492   -0.0041372524752472    0.5842537330844025 Na
  -0.0000000040972376    0.2740478451987398    0.4131335379189661 Li
   0.0000001649043608    0.2208153343135968    0.9083528071159066 Li
   0.0000001429066414    0.1949596386256809   -0.0910958146604719 Li
   0.4999998261247208    0.2174084282665498    0.1307973410460828 Sb
