Cs1 Rb1 Na1 Li1 Sc2 Sb1 P1
1.0
   6.2080903471644815   -0.0000000036790260   -0.0000000107477684
  -0.0000000033620423    6.2981710137754012   -0.1761481644679820
  -0.0000000121319600   -0.1728719276344157    7.0098424601545117
Cs Rb Na Li Sc Sb P
1 1 1 1 2 1 1
direct
   0.5000000004341847    0.5783881786369111    0.7804011324121122 Cs
  -0.0000000018878307    0.0132093746960148    0.2914904781620412 Rb
   0.5000000001939081    0.2145192047431236    0.0308220975871478 Na
   0.0000000000272864    0.0009807179423568    0.6502101935457624 Li
   0.0000000081742234   -0.0001001764260340   -0.0016875692962778 Sc
  -0.0000000066705522   -0.0058726795263836    0.9351073830689978 Sc
   0.4999999999412965   -0.1077713963461578    0.3214591621506460 Sb
   0.5000000004000394    0.5156877734039609    0.3201641130047603 P
