Rb1 Li3 Bi1 Sb1
1.0
   5.9079454191560332   -0.0000000001284667    0.0000000000369080
  -0.0000000001314079    6.5471194463905142    0.0920074961960038
   0.0000000000359643    0.0930115486769827    5.8589226950553623
Rb Li Bi Sb
1 3 1 1
direct
   0.0000000000101680   -0.0009282674909371    0.3015542078573676 Rb
  -0.0000000000241740   -0.1317908726950045    0.8303062760041084 Li
   0.0000000000191570    0.3165225917252413    0.8733763795054519 Li
   0.4999999999190998    0.3096739176565312    0.7387309558291751 Li
  -0.0000000000147648    0.5010194434248959    0.2750258493277826 Bi
  -0.0000000000060682    0.4996721840452970    0.2758863331086844 Sb
