Rb1 Na3 Bi1 Sb1
1.0
   5.4680822366512372   -0.0000000600507750   -0.0000001094990907
  -0.0000000584529403    6.5702509083525911   -0.3288219988216473
  -0.0000000873480059   -0.3223890060054752    7.2621908633220587
Rb Na Bi Sb
1 3 1 1
direct
  -0.0000000116871721   -0.2379600801286684    0.0529129870027815 Rb
   0.0000000177734668    0.0662461620813012    0.6308020664724687 Na
   0.0000000280694741    0.2799786483893968    0.2405732341497736 Na
   0.4999999957287807    0.4823793558955238    0.6440840274637558 Na
   0.4999999957601907    0.0563077407992271    0.3771331911245142 Bi
   0.4999999706096445   -0.0262878134406729    0.7692055027623621 Sb
