Cs1 Rb1 Sc1 S2
1.0
   4.6207463694353894   -0.0782346557043649    0.9779993307808157
  -0.0782357751714299    4.6207605055026200   -0.9780040469636261
   0.9337612923218767   -0.9337628082322600    9.8338154223559435
Cs Rb Sc S
1 1 1 2
direct
  -0.0260545375987659    0.0260549622295658    0.8760791553966024 Cs
   0.2810160167480570    0.7189836489331142    0.2001170573916544 Rb
   0.6099544113897476    0.3900492384923936    0.5711769421133456 Sc
   0.4972949349541522    0.5027053663755315    0.8295254850453196 S
   0.3044551831448774    0.6955407841888578    0.5108713668251379 S
