Ca1 Cd1 Se1 O1
1.0
   5.6701310848962905    0.0342829958488989    0.0398811910060028
   0.0501930012482069    4.2232007376647012   -0.0159760935002586
   0.0218486074768818    0.1083318795540468    6.1240587168840266
Ca Cd Se O
1 1 1 1
direct
   0.0239485486199633   -0.2591630458116262    0.8337959385283583 Ca
   0.1143535570341671    0.2312879247168954    0.2442493319919677 Cd
  -0.1019543925589376    0.7333631760646901    0.3800428603805983 Se
   0.1048782852863794    0.2376939460798648    0.8914138810174462 O
