Cs1 Na1 Cu1 As1
1.0
   4.3117089566943161    0.1696889209386276    0.0114800991692475
   0.1526069380128749    4.6770028339379950    1.2409101422909055
  -0.0209794238599194    1.1060949827642470    6.7522465819992297
Cs Na Cu As
1 1 1 1
direct
   0.0754125907100369    0.4874057884884923    0.7090336505637037 Cs
   0.5912393203498971    0.7846125474490367    0.1530973060218618 Na
   0.6665727539014085    0.1424291472075752    0.3950063019908680 Cu
   0.1619323531620889    0.2522195164017192    0.2617157598603392 As
