Rb2 Sc1 S1
1.0
   4.9990402615773348   -0.5118130311186154   -0.0315460546361894
  -0.5118130054795957    4.9990376380799315    0.0315458709021353
  -0.0330339488816667    0.0330337683979700    5.1435078336228717
Rb Sc S
2 1 1
direct
  -0.0193437710995043    0.0193436758792410    0.7498753717867779 Rb
   0.2856899671062327    0.7143100060602111    0.2586988111823484 Rb
   0.6947126447020735    0.3052874848715051    0.2382553521247597 Sc
   0.7056081604752057    0.2943918301016583    0.2380434618724462 S
