Rb2 Ag1 Bi1 As1
1.0
   5.9999999999999982    0.0000000000000000    0.0000000000000000
   0.0000000000000000    7.8025379683067300    0.6977820079205050
   0.0000000000000000    0.7118861508509517    6.7974302210839488
Rb Ag Bi As
2 1 1 1
direct
   0.0000000000000000   -0.2188169638876202    0.0099598132595233 Rb
   0.0000000000000000    0.2914534654226483    0.9052904977765623 Rb
   0.0000000000000000    0.4043974557266841    0.4027754026212287 Ag
   0.0000000000000000    0.0323069220201117    0.4546976477022557 Bi
   0.0000000000000000    0.6904961291589274    0.5347666399586003 As
