Cs1 Ag1 Te1 Se1 O1
1.0
   4.7143025046813962   -0.1662846004797613   -0.0331448709586024
  -0.1662831769434708    4.7142714343524705    0.0331383940554776
   0.0042823108216280   -0.0042913095815671    7.2983087070210360
Cs Ag Te Se O
1 1 1 1 1
direct
   0.4224762029445839    0.5775124329250482    0.7717291324495781 Cs
  -0.0678931511534974    0.0678850842894791    1.0590416030745340 Ag
   0.2695908985116440    0.7304344532782741    0.2457949321304130 Te
  -0.0429436083823301    0.0429487039783956    0.4205905141709322 Se
   0.4187686582720752    0.5812203248449312    0.7825988232379572 O
