Rb1 Na1 Ag1 As1
1.0
   6.0000000000000000    0.0000000000000000    0.0000000000000000
   0.0000000000000000    5.5079024859407291    0.1255008389616266
   0.0000000000000000    0.1050563767963551    9.0201161288920471
Rb Na Ag As
1 1 1 1
direct
   0.0000000000000000    0.0210253231756773    0.8962273958322118 Rb
   0.0000000000000000    0.4105901399550424    0.3366302628204312 Na
   0.0000000000000000   -0.0943454936514921    0.5150863465923790 Ag
   0.0000000000000000   -0.0872699760085271    0.2425139869708775 As
