Ca1 Cd1 Se2
1.0
   4.0692565095923374    0.7182521805079691    0.9610069143889711
   0.7282702789722105    8.5630494579289973   -0.2660974467670388
   1.0802487727956784   -0.4694532977887274    4.0864353728089089
Ca Cd Se
1 1 2
direct
   0.3017679417606628    0.1445438102056325    0.6599554240326326 Ca
   0.3026695915040601    0.6373212798387737    1.0500970224507102 Cd
   0.0971008992553073   -0.0509953494448189    0.2011178292393991 Se
   0.4879525707744664    0.3477332684047414    0.1140487295553096 Se
