Ba2 Te1 S1
1.0
   6.0000000000000000    0.0000000000000000    0.0000000000000000
   0.0000000000000000    5.8552008461181666   -0.3236040706243262
   0.0000000000000000   -0.3402128523735060    6.7847537116059025
Ba Te S
2 1 1
direct
   0.0000000000000000    0.4788718179176715    0.2395951927482889 Ba
   0.0000000000000000    0.6017829661763925    0.7371673865114488 Ba
   0.0000000000000000    0.4788856835663945    0.2385211284669886 Te
   0.0000000000000000    0.1368775320181408    0.9386212910437367 S
