Cs1 Rb1 Li4 Sb1
1.0
   6.2418402503215749   -0.0000000023596988    0.0000000034133469
  -0.0000000023293363    6.0629890275875162   -0.0412935270736033
   0.0000000033405635   -0.0419117845500248    6.2775578351297963
Cs Rb Li Sb
1 1 4 1
direct
   0.5000000003071885    0.5059464027426208    0.7323864097840262 Cs
  -0.0000000000554970   -0.0090787694290718    0.4724285547598313 Rb
   0.0000000000191372    0.2648068052531374   -0.0224659887283858 Li
   0.5000000001319561    0.4962511126745450    0.2677802551930194 Li
  -0.0000000001368338   -0.0717569696499112    0.0803793921447142 Li
  -0.0000000004474963    0.0073375840581582    0.0604524676800616 Li
   0.4999999999382626    0.0036258317612501    0.4469519094517245 Sb
