Cs1 Rb1 Sc1 S2
1.0
   5.5084587134242131    0.0860347245868845    0.1284399692825127
   0.0375146011494567    4.5917020341333874    0.2199956981463094
   0.1391520403663190    0.2016970772916348    5.5921726434460517
Cs Rb Sc S
1 1 1 2
direct
  -0.0238056918175703    0.5217850032892374    0.7648299174322671 Cs
   0.4318989316554839    0.6879616855742161    0.1454765837295627 Rb
   0.5223138113074073    0.1636201673528750    0.3428795465465414 Sc
  -0.0322354593336480    0.1131662371238714    0.3048629489743023 S
   0.4414854090818456    0.6801339070428217    0.1566620040594677 S
