Ba2 Cd1 Sb1 P1
1.0
   6.7645402153593768    0.0000001851576096   -0.0000004077883682
   0.0000001629126367    5.3960597146885867   -0.0000001987359297
  -0.0000004100366767   -0.0000001845514461    4.8355041209600937
Ba Cd Sb P
2 1 1 1
direct
   0.0000000264982337    0.0000000996703255    0.6044445177344091 Ba
   0.4999999960903532    0.4999998841011883    0.2866622695439747 Ba
  -0.0000000386273769    0.5000000893805708    0.1411892738204521 Cd
   0.5000000325732985   -0.0000001207146163    0.7543175176282335 Sb
  -0.0000000179408518    0.5000000452926577    0.1853934259875641 P
