Cs1 Rb1 Sc2 S1 O3
1.0
   5.7617944078095285    0.1693771659533156    0.1142124110168544
   0.1693771741391235    5.7617911300876177   -0.1142130730529514
   0.1188898164588990   -0.1188904436584351    7.4201050717536052
Cs Rb Sc S O
1 1 2 1 3
direct
   0.0899665228398189   -0.0899656933649386    0.7428472707026172 Cs
   0.1778279898063511    0.8221720136844110    0.2375745601522621 Rb
   0.7102132166644092    0.2897867413476662    0.1948370218894029 Sc
   0.6253694648954967    0.3746309314160823    0.5911192211531164 Sc
   0.5134353471405251    0.4865639369129525    0.9128488187995880 S
  -0.0985284550024267    0.0985278405107537    0.0456582378207730 O
  -0.1697859291098637    0.1697863362387076    0.4401756349114202 O
   0.4848348484772593    0.5151648869292595    0.3988242751711625 O
