Ba3 Te1 S1 O2
1.0
   5.9681538891732089   -0.0042813894340499    0.0180897192725989
  -0.0042813980462537    5.9681569339010601   -0.0180928928325927
   0.0179439340653980   -0.0179470500040404    6.0912642461664568
Ba Te S O
3 1 1 2
direct
  -0.0102268612043674    0.0102286388664261    0.8613079667078277 Ba
   0.3430241478664252    0.6569835938476709    0.2733308012773250 Ba
   0.3449848913916370    0.6549946893283199    0.3162030147355503 Ba
  -0.0051398164134692    0.0051385102959977    0.3956465461003591 Te
   0.6642453885038268    0.3349716702803147    0.2213488500514152 S
   0.6609330327509226    0.3398616287815516    0.2234383618791771 O
   0.6688462196645841    0.3311542690556857    0.9059214631452325 O
