Na1 Sr1 Bi1 P1
1.0
   3.2477084182739722    0.1462208045178324   -0.0000000288383649
  -0.1165052668835823    6.2325834900112289    0.0000000017007581
  -0.0000000102691513    0.0000000036975870    6.0102525459817659
Na Sr Bi P
1 1 1 1
direct
   0.1762187631239021    0.1133730329695891    0.5000000019842047 Na
   0.2343281095989598    0.6319802360709811    0.0000000010668001 Sr
  -0.2768929732795535    0.1306303746433337   -0.0000000007033867 Bi
   0.1996790598994740    0.6169083627824069    0.4999999997305400 P
