Rb1 Y1 Se1 O1
1.0
   3.9596955256583959    0.0269819076474842    0.1675513958017709
   0.0269826197546894    3.9596968773182177   -0.1675454733307893
  -0.0046936105063978    0.0046962530047595    7.3687552118336175
Rb Y Se O
1 1 1 1
direct
   0.5237766998343636    0.4762236894832527    0.8023883557561885 Rb
  -0.0213859857257006    0.0213833436199345    0.2060567683573733 Y
   0.4727976099205888    0.5272048628104541    0.3024899162837285 Se
   0.0248106734270115    0.9751891024130955   -0.0609310310846941 O
