Ca1 Mg2 Cl2
1.0
   5.9913939335471760    0.3375895222009109   -0.1763202325701342
   0.3043627540713955    4.8635093755973902   -0.4528332808130404
  -0.1786279887903098   -0.4406552441359154    7.1030060482750486
Ca Mg Cl
1 2 2
direct
   0.0456322141435975   -0.1517831112464053   -0.0360894465952929 Ca
  -0.1551781080796739    0.4626481868216661    0.2815525455718530 Mg
  -0.0057203545581980   -0.0098619259592872    0.4838361650880234 Mg
   0.0882214255225824    0.3037412995505159    0.8082446167109748 Cl
   0.2663998135462126    0.6341185519775550    0.2625181109217467 Cl
