K1 Na1 Ag1 P1 O1
1.0
   6.3858762256948962   -0.3238650079857573    0.1491320154630037
  -0.4509327406997885    5.1906902258314958   -1.1131834568091818
   0.0388974256221215   -1.2786571016204569    5.1730693038425102
K Na Ag P O
1 1 1 1 1
direct
  -0.0318611348447941    0.2984490267943754    0.2920050481001276 K
   0.3616378253514680    0.7307347296760522    0.9850979921013279 Na
   0.5514408869228330    0.1683428541463837   -0.2574348502700055 Ag
   0.1960114232176652   -0.0190768154031043    0.6131763349018771 P
   0.0935080034438186    0.8138912152537300    0.3061424871105830 O
