Cs1 Na1 Sc1 F2
1.0
   3.6708486087795262   -0.1459600320619558    0.4358858277265397
  -0.0105252079600126    8.1654436052985773    0.1847055125665256
   0.3533543276995076    0.1772635762775597    7.0365952763084891
Cs Na Sc F
1 1 1 2
direct
  -0.1011956151446262    0.5310330597864530    0.2911229852307548 Cs
  -0.0084851653856426    0.0497380997080253   -0.0170796316422697 Na
   0.1156700947772456    0.0251332846558022    0.4870985777849509 Sc
   0.2487484930431884    0.2533276390222587    0.4577817593022557 F
  -0.0367958048663277   -0.0993400859144854    0.2811642967229123 F
