Rb2 Sc1 S2
1.0
   6.5856561339253714   -0.0751631849759115    1.0306688803811137
  -0.1176592926144870    4.3267261830479260    0.8934352517792221
   0.8665924374784318    1.0138918176034017    7.7441902752244482
Rb Sc S
2 1 2
direct
  -0.1702381623771020   -0.0969389960630002    0.1368664386363248 Rb
   0.4077596043044213    0.4775513889767177    0.8074629432706281 Rb
   0.0066743934930604    0.1561547834877493    0.5492313975125890 Sc
  -0.0638377154630971    0.5508067912948840    0.7236548009511777 S
   0.1529748852182721    0.3519620083627570    0.2297754325887682 S
