Na1 Sc1 S1 F1
1.0
   4.8924066623453033   -0.0154184498354728   -0.2363334665398222
  -0.1632722147074690    3.7188385955919512    0.4710954192810035
  -0.2868940177482408    0.0311651749152183    6.5118403820239656
Na Sc S F
1 1 1 1
direct
  -0.1376441517141037   -0.1301550556617340    0.0268646647436610 Na
   0.2374084178383395   -0.0093656266480259    0.5778407958116027 Sc
   0.1165210223880833    0.4300692956959110   -0.2035896076246979 S
  -0.0310722924009388   -0.0048326107046469    0.3465231471489483 F
