Cs1 Rb1 Sc1 S3
1.0
   8.2851760227763691   -0.6358624476304310    0.3977737011901884
  -0.6358624453251385    8.2851761759099176   -0.3977713987539009
   0.5512261928392099   -0.5512235726998508    9.6856743870823596
Cs Rb Sc S
1 1 1 3
direct
  -0.0936425575625820    0.0936428792267389    0.2989351002573825 Cs
   0.4402381730157705    0.5597616377999256    0.1007365037882295 Rb
   0.7172944809932968    0.2827054514444148    0.8657147046324397 Sc
   0.2373007144314968    0.7626992907067114    0.6453839316503541 S
   0.3041119370936043    0.6958881512981031    0.6090975296827587 S
   0.7280302532557411    0.2719695863373064    0.0833052462932075 S
