Ba3 Te2 S1
1.0
   5.0256124702872995    0.0000000174543172   -0.0000000177799064
   0.0000000237703542    7.2944101265295984    0.9523298185646041
  -0.0000000113879893    0.8624580127737421    6.8713259469017203
Ba Te S
3 2 1
direct
   0.0000000032332864   -0.0313212442952365    0.9995794940768643 Ba
   0.0000000002265845    0.4147092361526797    0.1800942625016035 Ba
  -0.0000000118910161    0.6121353737668132    0.6166793728562484 Ba
   0.5000000046694559    0.2960972178569944    0.8294038696816792 Te
   0.0000000001227919    0.4164482401865121    0.1800723356046949 Te
   0.0000000013786821    0.0372261793688474    0.4399306583118735 S
