Sr1 Si2 Rh1
1.0
   6.0000000000000000    0.0000000000000000    0.0000000000000000
   0.0000000000000000    6.4641269447838550   -0.1694269236847690
   0.0000000000000000   -0.1379796169136752    4.8904865938229340
Sr Si Rh
1 2 1
direct
   0.0000000000000000    0.6182044712609722    0.0733899829135995 Sr
   0.0000000000000000    0.3514427219083860    0.5545148126500613 Si
   0.0000000000000000    0.0698436266773396    0.8284225804604117 Si
   0.0000000000000000    0.0575901877917027    0.2996416254844336 Rh
