Ba2 Cd2
1.0
   6.6701104273629817   -0.0000000001526129    0.0000000002717159
  -0.0000000002149227    8.5746559820935779   -0.0000000584352973
   0.0000000004112345   -0.0000000611814953    7.7767990720142333
Ba Cd
2 2
direct
  -0.0000000000219421    0.5000000003771752    0.0453002252546483 Ba
   0.4999999999550235    0.4999999998945324    0.3886444610851812 Ba
   0.0000000000104502    0.5000000002113449   -0.0862535574516650 Cd
   0.0000000000186256   -0.0000000004830503    0.4123498623383803 Cd
