Rb1 Al2 S1
1.0
   6.0000000000000000    0.0000000000000000    0.0000000000000000
   0.0000000000000000    4.9158920682261549   -0.0000014324959386
   0.0000000000000000   -0.0000009333788928    8.9556889078259410
Rb Al S
1 2 1
direct
   0.0000000000000000    0.0000006429612968    0.9289716756172463 Rb
   0.0000000000000000    0.4999994150505683    0.4207006577251419 Al
   0.0000000000000000    0.0000013421757818    0.5175061699136059 Al
   0.0000000000000000   -0.0000013994509195    0.2595575019969709 S
