Na2 Ag1 Bi1 As1
1.0
   3.1560497793415392    0.0000001735541445   -0.0000003294923271
   0.0000001030561031    6.6952752411655174    0.4293591075855739
  -0.0000002541924925    0.3229523124984522    6.9126016709528812
Na Ag Bi As
2 1 1 1
direct
   0.0000000783563002    0.4380481324468236    0.7221835065177252 Na
   0.0000000434017384    0.0109254535357919    0.3311122821886189 Na
  -0.0000000152389922   -0.1733082538442728    0.9214340013549479 Ag
   0.0000000006539986    0.5216673921826178    0.2349274331370282 Bi
   0.4999998954443410    0.0565452766138658    0.6972187652044375 As
