Sr1 Si2 Rh1
1.0
   6.0000000000000000    0.0000000000000000    0.0000000000000000
   0.0000000000000000    6.4242867594824418   -0.7265981284073673
   0.0000000000000000   -0.6634601027793925    4.8467765297289009
Sr Si Rh
1 2 1
direct
   0.0000000000000000    0.5930599759916437    0.2997699897009981 Sr
   0.0000000000000000    0.3160590661384257    0.7111666528009077 Si
   0.0000000000000000    0.0087922546188624    0.8786080393424881 Si
   0.0000000000000000    0.0321147026321639    0.3540653252323321 Rh
