K1 Li1 Mo1 F1
1.0
   6.0000000000000000    0.0000000000000000    0.0000000000000000
   0.0000000000000000    6.0895843580742568   -0.0000000002316547
   0.0000000000000000   -0.0000000001882276    6.7216027466071342
K Li Mo F
1 1 1 1
direct
   0.0000000000000000    0.4999999999745885    0.2635247399802856 K
   0.0000000000000000   -0.0000000000157493    0.5369215871089441 Li
   0.0000000000000000   -0.0000000000429316   -0.0602294456389366 Mo
   0.0000000000000000    0.0000000000453242    0.2393351188862326 F
