K1 Bi1 Te1 O1
1.0
   6.0000000000000000    0.0000000000000000    0.0000000000000000
   0.0000000000000000    5.2326041773739771    0.0065379416595214
   0.0000000000000000    0.0060325808138669    5.6447188080650594
K Bi Te O
1 1 1 1
direct
   0.0000000000000000    0.0021148162658326   -0.0243921113461637 K
   0.0000000000000000   -0.0003163959615655    0.1812537978363551 Bi
   0.0000000000000000    0.5001161287176780    0.1996762538119782 Te
   0.0000000000000000   -0.0019145494491696    0.6031600550941391 O
