Ba1 Si1 Pd1 N1
1.0
   6.0000000000000000    0.0000000000000000    0.0000000000000000
   0.0000000000000000    7.6233266766293992   -0.0000000037513640
   0.0000000000000000   -0.0000000026923542    6.5385274348324014
Ba Si Pd N
1 1 1 1
direct
   0.0000000000000000    0.4999999996730755    0.2122935517787727 Ba
   0.0000000000000000    0.5000000000826820    0.3474768389362530 Si
   0.0000000000000000    0.0000000000157859   -0.0813653992903554 Pd
   0.0000000000000000    0.0000000000653945    0.1759420054434818 N
