Sr1 Si2 Pt1
1.0
   6.0000000000000000    0.0000000000000000    0.0000000000000000
   0.0000000000000000    4.1222534719821926   -0.0000000522846125
   0.0000000000000000   -0.0000000299632166    8.6031080891186917
Sr Si Pt
1 2 1
direct
   0.0000000000000000   -0.0000000002422631    0.6228098868755378 Sr
   0.0000000000000000    0.4999999856860411    0.3502111960006791 Si
   0.0000000000000000    0.0000000004019007    0.9793502856287849 Si
   0.0000000000000000    0.0000000135803691    0.2469196243267650 Pt
