K1 Na1 Si1 Rh1
1.0
   6.0000000000000000    0.0000000000000000    0.0000000000000000
   0.0000000000000000    5.2564910728305181    0.0000000224418066
   0.0000000000000000    0.0000000195854012    6.8594837322228779
K Na Si Rh
1 1 1 1
direct
   0.0000000000000000    0.5000000005614921    0.5438435821410365 K
   0.0000000000000000    0.4999999929007967    0.0680221678615994 Na
   0.0000000000000000    0.0000000026379920    0.9221925893309983 Si
   0.0000000000000000    0.0000000046270098    0.2231026671524109 Rh
