Sr1 Si2 Pt1
1.0
   6.0000000000000000    0.0000000000000000    0.0000000000000000
   0.0000000000000000    4.1701420103150530   -0.0000000812950927
   0.0000000000000000   -0.0000000255768408    8.4163656448232445
Sr Si Pt
1 2 1
direct
   0.0000000000000000   -0.0000000016307065   -0.0075277940995950 Sr
   0.0000000000000000    0.5000000250127452    0.2747132748252938 Si
   0.0000000000000000   -0.0000000236680515    0.3886671575542625 Si
   0.0000000000000000    0.0000000013150633    0.6457153498007216 Pt
