Cs1 Na1 Sc1 F1
1.0
   6.0000000000000000    0.0000000000000000    0.0000000000000000
   0.0000000000000000    7.9176825608526435    0.0000000084782347
   0.0000000000000000    0.0000000066581952    7.4160221349862319
Cs Na Sc F
1 1 1 1
direct
   0.0000000000000000    0.5000000020384904    0.2535667329627662 Cs
   0.0000000000000000   -0.0000000000366898   -0.0332321048657738 Na
   0.0000000000000000    0.0000000000227484    0.5153160153597356 Sc
   0.0000000000000000    0.0000000001249739    0.2646353579478180 F
