Na1 Sr1 As1 Rh1
1.0
   6.0000000000000000    0.0000000000000000    0.0000000000000000
   0.0000000000000000    5.2938189546775476   -0.0000000319276320
   0.0000000000000000   -0.0000000202375932    7.8863243597480306
Na Sr As Rh
1 1 1 1
direct
   0.0000000000000000    0.4999999901111932    0.4808394315803168 Na
   0.0000000000000000    0.0000000019087027    0.9448884425279045 Sr
   0.0000000000000000    0.0000000124034959    0.3210404156029335 As
   0.0000000000000000   -0.0000000059780408    0.6104537145335105 Rh
