Sr1 Cu1 Pb1 O1
1.0
   3.5138071238740167    0.6414696538762306   -0.0194311465523564
   0.7012929826573586    6.7482791238355091   -0.0271221742043034
   0.0317507626794361   -0.0483773290490594    3.5909865822248279
Sr Cu Pb O
1 1 1 1
direct
   0.4155581909790135    0.4460034819620246    0.0628617188655480 Sr
  -0.2782832001005908   -0.1090538675491663    0.0573943419530804 Cu
   0.1541842601373436    0.0191117967797551    0.5610603037810670 Pb
  -0.0586912409626393    0.3871996021198232    0.5686836415659763 O
