Rb1 Au3
1.0
   6.0000000000000000    0.0000000000000000    0.0000000000000000
   0.0000000000000000    5.7181936332543675    0.0000000001938919
   0.0000000000000000    0.0000000001980532    5.9919163792162395
Rb Au
1 3
direct
   0.0000000000000000   -0.0000000000013864    0.9458713031099362 Rb
   0.0000000000000000    0.5000000000335798    0.2680036731885719 Au
   0.0000000000000000   -0.0000000000008613    0.4606600232642665 Au
   0.0000000000000000   -0.0000000000035558   -0.0057180005905855 Au
