Cs1 Na1 Ca1 F1
1.0
   6.0000000000000000    0.0000000000000000    0.0000000000000000
   0.0000000000000000    7.0310307581040581    0.0000000029386452
   0.0000000000000000    0.0000000026125786    8.2963921410773160
Cs Na Ca F
1 1 1 1
direct
   0.0000000000000000    0.5000000012141671    0.2698232634650457 Cs
   0.0000000000000000   -0.0000000007688956    0.4997537764570111 Na
   0.0000000000000000   -0.0000000007719232   -0.0149359852100278 Ca
   0.0000000000000000    0.0000000010882420    0.2249869496403945 F
