Ba1 Ag1 W1 O2
1.0
   4.0277594199526909   -0.0162883272781641   -0.9513047093755344
  -0.0062103486525780    4.0165649329259629   -0.0474115910782089
  -0.6968146495865553    0.0432090481332644    7.3092088450128170
Ba Ag W O
1 1 1 2
direct
  -0.0563600684060134    0.5516008495294714    0.3021050094917857 Ba
  -0.3631011489207459    0.0519393790219494    0.6339605673405357 Ag
   0.2854971953114756    0.0509293896386017   -0.0570531790805942 W
   0.3573016731630368    0.5500753967649509   -0.0044870839366681 O
  -0.0005316504849086    0.0510709905242873    0.1074566861229042 O
