Rb2 In2 O1
1.0
   6.0000000000007594    0.0000000000000009   -0.0000000108266094
   0.0000000000000009    6.0000000000008207   -0.0000000164463874
  -0.0000000122944976   -0.0000000191995835    7.7306043798385238
Rb In O
2 2 1
direct
   0.3333330000311935    0.6666670000965175    0.7187234876732865 Rb
   0.3333329999525254    0.6666669998943204    0.2682131496870634 Rb
   0.3333330000566063    0.6666670000630048    0.6659848669231911 In
   0.3333330001045084    0.6666670001753775   -0.0775470542361680 In
   0.3333329998551659    0.6666669997707860    0.5637185440947728 O
