Sr1 Si2 Ir1
1.0
   6.0000000000000000    0.0000000000000000    0.0000000000000000
   0.0000000000000000    6.9045899502104264   -0.0914990185519089
   0.0000000000000000    0.0674931726298005    4.2093400450992986
Sr Si Ir
1 2 1
direct
   0.0000000000000000    0.6612382298814953   -0.0792181587495580 Sr
   0.0000000000000000    0.3211937760460720    0.4245031520598010 Si
   0.0000000000000000    0.1435136436813791   -0.0740313281803911 Si
   0.0000000000000000   -0.0215576489989611    0.4262423183735303 Ir
