Cs1 Li1 Bi1 I1 O1
1.0
   5.9999999999999982    0.0000000000000000    0.0000000000000000
   0.0000000000000000    6.6057410637019647   -0.5709655446007811
   0.0000000000000000   -0.5731079920506343    6.0083243823107271
Cs Li Bi I O
1 1 1 1 1
direct
   0.0000000000000000   -0.0977171057738065    0.4406144116262239 Cs
   0.0000000000000000    0.3123201547017887    0.1985370256325872 Li
   0.0000000000000000    0.5556073548574146    0.8325743791525377 Bi
   0.0000000000000000    0.3564201273316521    0.2131392278809227 I
   0.0000000000000000   -0.1366855335488308   -0.0667260463709248 O
