Ba2 Cd2 S2 O1
1.0
   4.7587945187360940    0.0000139930169961    0.0000144349252154
   0.0000239365344178    7.4689896200937707   -0.2552994800621813
   0.0000124729387904   -0.1066105636580877    6.3234694531027893
Ba Cd S O
2 2 2 1
direct
  -0.0000004024546960   -0.0631973941802004    0.7431473829862401 Ba
   0.4999988429331600    0.2979364306228904    0.4003945185823645 Ba
   0.0000011676488830    0.3975257659622901    0.8237847185698287 Cd
   0.5000024115196914    0.5899669872662187   -0.1075251593187198 Cd
   0.4999975791108529    0.2049560169821905   -0.0811111986304053 S
   0.5000029445901647    0.7218190186777210    0.5269614710351391 S
  -0.0000025055516067    0.2110701562059585    0.5326832905667784 O
