Cs1 Rb1 Na3 As1
1.0
   5.1062193033857479    1.0543409507881005   -0.0921071573035427
   1.1624670137046278    7.0804658433713783    1.1100520839610555
  -0.0637222434555114    0.8317451810420697    7.5713500716168767
Cs Rb Na As
1 1 3 1
direct
   0.0163972130267172    0.4500723633691572    0.5662277664367324 Cs
  -0.2263927504496025   -0.0664246951145036   -0.0246263194751475 Rb
   0.5345493752775188    0.4241378610124086    0.1669182293897792 Na
   0.2114629759531285    0.0669392136945374    0.2705067281198579 Na
   0.3212707337241983    0.8337838942604491    0.6558016463958747 Na
   0.7180854333507378    0.0414913223607035    0.4815959256832363 As
