Li1 Bi1 Ir1 S1
1.0
   6.0000000000000000    0.0000000000000000    0.0000000000000000
   0.0000000000000000    4.4265372287421787   -0.0002410109730946
   0.0000000000000000   -0.0001958490134341    5.3929597737455346
Li Bi Ir S
1 1 1 1
direct
   0.0000000000000000   -0.0000062905715634    0.5674293076990171 Li
   0.0000000000000000    0.5001089444258050    0.1333969200695810 Bi
   0.0000000000000000    0.0000496208608322    1.0701265674276210 Ir
   0.0000000000000000    0.4998477271804689    0.1973002079145176 S
