Ba3 Te2 S1
1.0
   6.5465250883799113    0.0000008812020102    0.0000115751219636
   0.0000005372509339    6.5982914044016354    0.0000614691006998
   0.0000117000328270    0.0000705558982744    6.7389321496450432
Ba Te S
3 2 1
direct
   0.5000001960116269   -0.0000085646791246    0.1046418859251444 Ba
  -0.0000013418242791    0.0000084901679893    0.5626342995682527 Ba
   0.0000019185697954    0.5000010472972402    1.0433877315245836 Ba
   0.5000014769210520    0.4999879712151873    0.1843152374262598 Te
  -0.0000025429604517    0.5000117488624036    0.5466452300327065 Te
   0.0000002961671440   -0.0000007231734017    0.0663786188711342 S
