Cs1 Rb1 Li2 As1 P1
1.0
   4.4918594884172061   -0.0000001312807598    0.0000009891150959
  -0.0000008683256019    7.0231963224709180   -0.9042192864604586
   0.0000007743201353   -0.6961898583069133    7.7449574171528717
Cs Rb Li As P
1 1 2 1 1
direct
  -0.0000001018759256   -0.1038750544443183    0.3881599468203587 Cs
   0.4999991476674250    0.5015389055959906    0.7396842220023305 Rb
   0.0000002602320190   -0.0295240019417904    0.9267173419748425 Li
   0.5000004308357432    0.2368406308059670    0.1035828080269582 Li
   0.5000002751376513    0.0299611726830820    0.7909283018564628 As
   0.4999999715166757    0.8935023604621878    0.0409323596157078 P
