Na2 Ag1 Bi1 As1
1.0
   5.5204006836897648   -0.4539099082596090   -0.1245608624177308
  -0.4301647035653181    5.3608211989617747    0.0528727569284536
  -0.1806756041515125    0.0636528937797106    4.8561333986818873
Na Ag Bi As
2 1 1 1
direct
  -0.0823089780301920    0.2738571753281447    0.7510793955499021 Na
   0.4193979337601859    0.4235858739474483    0.2433961415631160 Na
   0.3771989300381096   -0.0882747423642544    0.8934648788157754 Ag
  -0.0089899735877938   -0.1939362557045205    0.2723512709838128 Bi
   0.5461650931202975   -0.0567260574672643    0.4128703096770321 As
