Ba1 Ca1 Te1 S1
1.0
   6.0000000000000000    0.0000000000000000    0.0000000000000000
   0.0000000000000000    4.2553242546713097    0.0000027386414873
   0.0000000000000000    0.0000015026615328    9.9167655575462206
Ba Ca Te S
1 1 1 1
direct
   0.0000000000000000    0.4999997235756470    0.2936966973583763 Ba
   0.0000000000000000   -0.0000000076027235    0.8415924696025723 Ca
   0.0000000000000000    0.5000002798476387    0.6141312671848796 Te
   0.0000000000000000    0.5000000041666776    0.0075415711173898 S
