Rb1 Na1 Li1 Mg1 As1
1.0
   4.2818353062248313    0.0000006678632070   -0.0000008661963893
   0.0000004753413329    6.2005601127953947   -0.0819307944126356
  -0.0000006809226959   -0.0812213833987076    5.5786643941570961
Rb Na Li Mg As
1 1 1 1 1
direct
   0.5000000818009752    0.4684881580325806    0.4959766898901996 Rb
   0.0000000152447271   -0.0306451596851320    0.5085743551623814 Na
  -0.0000000510933767    0.1869940294566168   -0.0011313915174746 Li
   0.0000001057554023    0.7158062685079273   -0.0097118789489213 Mg
   0.4999998503800959   -0.0452392887797367    0.9347582251403123 As
