Ba3 Te2 S1
1.0
   6.0019197968438940   -0.0000597883249006   -0.0000601132743448
  -0.0000597892937488    6.0035464157738394   -0.0003086933458811
  -0.0000599373130114   -0.0003076625173712    6.0402259728246790
Ba Te S
3 2 1
direct
   0.4999995534169669    0.4999975099328808    0.6700456559938580 Ba
  -0.0001130879475772   -0.0005905791488885    0.3386910133134284 Ba
  -0.0001055837684769   -0.0005543186706377    0.3384793079416816 Ba
   0.5000002889068238    0.5000018861418803    0.2207368231047210 Te
   0.0000003848210731    0.4999831480883066    0.2573203192025263 Te
   0.0002184445621421    0.0011623534240429    0.2662508752754153 S
