Cs1 Mo1 S3
1.0
   5.9011483393496995    0.0186996987307204   -0.1726039813683089
   0.0194134372940327    6.0808954324230564    0.0304720615937836
  -0.1721929916696400    0.0304534365137353    6.1182910917911384
Cs Mo S
1 1 3
direct
   0.1646005548507791    0.3590968521836359    0.4831755970148820 Cs
   0.2203881602416767    0.0033567289319364    0.3753611585689075 Mo
   0.1239322093391190    0.5303614454894456    0.9350089767959194 S
   0.1872746996958448   -0.0453773014020033    0.3384616346879301 S
   0.4044363804649415    0.6004132761012859    0.1417326328849990 S
