K1 H1 Au2
1.0
   6.0295268904345605    0.2485526849530879   -0.0000000001399333
   0.2506416467839859    6.1431116053820203   -0.0000000003639564
  -0.0000000001602223   -0.0000000003580248    5.3190168215693996
K H Au
1 1 2
direct
  -0.0479637730247250   -0.0355740654106114   -0.0000000000018586 K
   0.2366815936665023    0.2894174629550337    0.0000000000064245 H
   0.0255802151328110    0.4586148107166940   -0.0000000002564806 Au
   0.0000639637698614    0.4945417974149002    0.5000000000002898 Au
