K1 Rb1 Na1 In1 S1
1.0
   5.8416110022138898   -0.3792552569948471   -0.2016778707875150
  -0.3792552443061580    5.8416103182700194    0.2016780001353873
  -0.2133212257248237    0.2133213558520677    5.2907329466158579
K Rb Na In S
1 1 1 1 1
direct
   0.3238026433687679    0.6761973160439959    0.4292044061771722 K
   0.6585772326236724    0.3414227487486122    0.8718392760993586 Rb
   0.3396404841561562    0.6603595121548155    0.9054516098175072 Na
   0.0504198697485047   -0.0504198645857947    0.1100165226620257 In
   0.2942257703580392    0.7057742870868260    0.3914651893004569 S
