K2 Rb2 Te1 S1
1.0
   6.0658947145022335    0.0004305722357261   -0.0009048389062210
   0.0004297584614443    5.8776726393402630    0.0026738780633358
  -0.0008740561849832    0.0025665761005563    6.4402837812602050
K Rb Te S
2 2 1 1
direct
  -0.0014548670155877   -0.0013695695330305    0.5130045824127351 K
   0.5001130644974152    0.5000830745586372    0.6977686856173282 K
   0.0004513775112606    0.4973928908298331    0.9788489971441127 Rb
   0.4993000666678887    0.4991436136106271    0.2495061504945086 Rb
  -0.0100227618197014   -0.0070236021770842    0.1607531244439115 Te
   0.0116131201400589    0.0117735927393249    0.2184114776824155 S
