Sr1 Si2 O1
1.0
   6.0000000000000000    0.0000000000000000    0.0000000000000000
   0.0000000000000000    4.1971298636654799   -0.0000005689301552
   0.0000000000000000   -0.0000026254776352    6.6491892796654550
Sr Si O
1 2 1
direct
   0.0000000000000000    0.5000002135174926    0.2190559914281813 Sr
   0.0000000000000000    0.4999997618443411    0.6782544786713897 Si
   0.0000000000000000   -0.0000000086011740    0.8183423776467198 Si
   0.0000000000000000    0.0000000336299148    0.0690431547612093 O
