K1 Rb1 Sc2 S3 O1
1.0
   5.9989952797747614   -0.0844222700282564   -0.1461167874692433
  -0.0844222731759364    5.9989952956085695    0.1461166475314057
  -0.1351182159415681    0.1351180613924863    7.1616728940394925
K Rb Sc S O
1 1 2 3 1
direct
   0.3196089001262566    0.6803915220528663    0.6138716676770528 K
   0.6579203794962641    0.3420796341726389    0.9277067875914425 Rb
   0.3303736497671033    0.6696264564948970    0.2913363888453714 Sc
   0.0406536359877923   -0.0406536385369658   -0.0502738013752328 Sc
   0.3098293741096184    0.6901700286717571   -0.0432660373728267 S
   0.6031529504622317    0.3968469999255817    0.4470043397640235 S
   0.0314735072295000   -0.0314734715576889    0.2781622295870531 S
   0.3736536053500382    0.6263464664346126    0.5671564149852845 O
