Rb1 Ba1 Te2 Se1 S1
1.0
   6.0000000000000018    0.0000000000000000    0.0000000000000000
   0.0000000000000000    5.7275892605732954   -0.0004004321500696
   0.0000000000000000   -0.0003045439334410    7.7695889976153474
Rb Ba Te Se S
1 1 2 1 1
direct
   0.0000000000000000    0.4992655636341459    0.2805058816095086 Rb
   0.0000000000000000   -0.0000093388089141    0.7457069515195637 Ba
   0.0000000000000000    0.4998762871288213    0.2307367694800276 Te
   0.0000000000000000    0.5012627753506631    0.2671305609762863 Te
   0.0000000000000000   -0.0003091925780284    0.3828188730788709 Se
   0.0000000000000000   -0.0000860948278900    0.0964679548463808 S
