Cs2 Na3 Li1 As1
1.0
   5.2523389498218300    0.0000000315039590    0.0000001054266682
   0.0000000281819744    7.3685454890227646   -0.1839539225062854
   0.0000000715415942   -0.1353747867687117    8.3115100921125258
Cs Na Li As
2 3 1 1
direct
   0.0000000079003473   -0.1729624298615155    0.2547719796498088 Cs
   0.5000000007273528    0.5495001734444217    0.7782411190813702 Cs
   0.0000000153325347    0.2706893953768265    1.0069111859623781 Na
   0.5000000017723781    0.2601475847971166    0.2717243290282016 Na
  -0.0000000132164162   -0.0755566928606173    0.8012028450995998 Na
   0.4999999806447318    0.0635650050039148    0.6537191499910634 Li
   0.5000000085662608    0.0636579799412596   -0.0521886237766880 As
