Cs1 Rb1 Li2 Bi1 Sb1
1.0
   5.2057540909584992    0.0000001058361701   -0.0000007141457283
   0.0000000373491930    6.3071354510692110   -0.5886928389545051
  -0.0000004657871562   -0.6109934075733530    7.7007746324636948
Cs Rb Li Bi Sb
1 1 2 1 1
direct
   0.5000000215652752    0.5506988753616493    0.5697314322562528 Cs
  -0.0000000267751962    0.0203552822280091    0.4353668067268643 Rb
   0.0000000227724766    0.0326491666228399    0.9475637310013951 Li
   0.5000000311550563    0.4016385107798718    0.0684164551427514 Li
   0.4999999900364189   -0.1075896960783260    0.1053006693094387 Bi
   0.4999999664761746    0.0894888420713979    0.7835778838543096 Sb
