K1 Na1 Ag1 Bi1 Sb1
1.0
   4.7887451576591324   -0.0000000061079804   -0.0000000289414533
  -0.0000000033078730    6.3983182744449048    0.2462116395390612
  -0.0000000238018385    0.2950935826330440    6.0989811741718061
K Na Ag Bi Sb
1 1 1 1 1
direct
  -0.0000000000799888    0.5543593312481647   -0.0654021657904518 K
  -0.0000000045780633    0.3485883382494374    0.4791645547205511 Na
   0.0000000004352527   -0.0917386349772636    0.3964713408748663 Ag
   0.0000000147176072   -0.1338718234278829    0.3949960450643216 Bi
   0.4999999895929592    0.0077157909255265    0.6497432249091059 Sb
