K1 Rb1 Sc1 S2
1.0
   4.3934454784913530   -0.2798936447758141   -0.4233557082839354
  -0.2801833904444890    4.3957984309623992    0.4248807251499286
  -0.6664218960819466    0.6671063098029448    8.7106470609659965
K Rb Sc S
1 1 1 2
direct
  -0.0114800601754787    0.0115080208376758   -0.1303876569535815 K
   0.3761989872912171    0.6237818179739355    0.5564816390868198 Rb
   0.7493448644787172    0.2515731514023336    0.2150051903429680 Sc
  -0.1452754929851456    0.1452557750400039    0.4894743775860448 S
   0.3645447055106400    0.6345482393551050    0.1517554727277655 S
