Sr1 Si2 Pt1
1.0
   6.0000000000000000    0.0000000000000000    0.0000000000000000
   0.0000000000000000    4.1696439592168062   -0.0000000160956419
   0.0000000000000000   -0.0000000362997252    8.4171348803489217
Sr Si Pt
1 2 1
direct
   0.0000000000000000    0.0000000007866031   -0.0069081214630061 Sr
   0.0000000000000000    0.5000000192784421    0.2753528395884653 Si
   0.0000000000000000   -0.0000000257243149    0.3893693373292074 Si
   0.0000000000000000    0.0000000053177733    0.6464029342934794 Pt
