Cs1 Al1 F2
1.0
   5.5615535266460654    0.0506112859045169    0.0000000101348158
   0.0762292054235095    6.7855811981793837   -0.0000003234117905
   0.0000000110431427   -0.0000004131639711    4.0384468795164770
Cs Al F
1 1 2
direct
   0.0581183912675595    0.4955658785026606    0.5000000881367851 Cs
  -0.0315137841191878    0.0037150462932147   -0.0000002052633971 Al
   0.1699878035549851    0.2058848787393197   -0.0000003739560653 F
   0.0054385886546045   -0.0026798004324239    0.5000004926102313 F
