Ba1 Al1 Si1 Ir1
1.0
   6.0000000000000000    0.0000000000000000    0.0000000000000000
   0.0000000000000000    5.9478163967496300   -0.0000001274513720
   0.0000000000000000   -0.0000000805209903    6.2828866274677324
Ba Al Si Ir
1 1 1 1
direct
   0.0000000000000000    0.5000074239957666    0.4994589435086327 Ba
   0.0000000000000000    0.0011038122209558   -0.0557800129642933 Al
   0.0000000000000000   -0.0011917801968583   -0.0296598076385407 Si
   0.0000000000000000    0.0000805439626245    0.3440598805687296 Ir
