K1 Na1 Sb2
1.0
   5.9900719154850481   -0.0038456224472537    0.0071496369164809
  -0.0038456228006126    5.9900717699956907   -0.0071490404588434
   0.0067859867997582   -0.0067854218758991    6.3593332313178665
K Na Sb
1 1 2
direct
   0.3377131064798489    0.6622927401603257    0.4565184287923237 K
  -0.0000723184605163    0.0000723002852255    0.2479886802360048 Na
   0.3299093561051519    0.6700850192050922    0.5016780319135365 Sb
   0.3324488557301399    0.6675509404858961    0.8790638593176974 Sb
