Ba1 Al1 Si1 Pt1
1.0
   6.0000000000000000    0.0000000000000000    0.0000000000000000
   0.0000000000000000    4.6502879581003684    0.0000000062642384
   0.0000000000000000    0.0000000033846683    8.9000478078416396
Ba Al Si Pt
1 1 1 1
direct
   0.0000000000000000    0.0000000002417414    0.6039091907892006 Ba
   0.0000000000000000    0.0000000001835612    1.0195811403439305 Al
   0.0000000000000000    0.5000000000428394    0.3000589839471442 Si
   0.0000000000000000    0.0000000000094858    0.2781156945845051 Pt
