Cs1 Na2 Sb1
1.0
   6.9828886565997408   -0.0000333668134755   -1.4510259102454142
  -0.0000513476860572    5.7216309634944320   -0.0000066642332424
  -1.2343165327762575   -0.0000098413099569    5.5788768680824052
Cs Na Sb
1 2 1
direct
   0.3271667067919328    0.4999969498240039    0.1593618537081421 Cs
   0.5898894930469815    0.0000000720110040    0.7564067722522100 Na
  -0.0791600846228799    0.5000004316228642    0.4663926472948616 Na
  -0.2668411158058795    0.5000025502630743   -0.1308332691052415 Sb
