K1 Na1 Mo1 O1
1.0
   3.5144848190919720   -0.1296191363632856   -0.1752783478190899
  -0.1296191240647828    3.5144862657267986    0.1752773337101470
  -0.1330602597911824    0.1330598223416782    7.9553915763650114
K Na Mo O
1 1 1 1
direct
   0.3858926139596983    0.6141073279667179    0.7162781099624600 K
  -0.1250792800943935    0.1250777379849581    0.0390304953972533 Na
   0.4010217989533142    0.5989778321552593    0.2886702636918076 Mo
   0.3381638566156651    0.6618381035425150    0.0418571232864044 O
