Ba2 Te1 O1
1.0
   6.0000000000000000    0.0000000000000000    0.0000000000000000
   0.0000000000000000    5.9813563057160799    0.0034061272089319
   0.0000000000000000    0.0033909148569520    6.0506240913243312
Ba Te O
2 1 1
direct
   0.0000000000000000    0.0008126510072123    0.5724779461017969 Ba
   0.0000000000000000    0.4987061600218536    0.3296083816756757 Ba
   0.0000000000000000    0.0002172434492797    0.5721242070599478 Te
   0.0000000000000000    0.0002639477949572    0.2278034636034716 O
