Li1 Mg1 Zn1 In1
1.0
   3.5790004411991445    0.0795644756562977    0.0155690869757427
   0.0795647589330146    3.5790037702528048    0.0155745842453008
   0.0275815759541969    0.0275850046637125    6.1620090187287548
Li Mg Zn In
1 1 1 1
direct
  -0.1090872915442867   -0.1090875123020677    0.4821220573551029 Li
   0.3698993478865311    0.3698991801321389    0.7382587674393660 Mg
   0.3656700035640783    0.3656712979421783    0.2611587053602291 Zn
  -0.1264820617742306   -0.1264829747659488    0.0184604656010688 In
