Ba3 Te2 S1
1.0
   6.2192571302509432    0.0000000015480209    0.0000003807856904
   0.0000000015851831    6.4267701792755840   -0.0000000111157140
   0.0000003334871929   -0.0000000111050667    6.7403647050295881
Ba Te S
3 2 1
direct
  -0.0000003454749539    0.0000000013141284    0.4790503736465176 Ba
   0.5000000645177241    0.5000000005348620    0.3391805923154256 Ba
   0.0000001544710415    0.4999999999428115    0.9974852924557701 Ba
   0.5000000772969109    0.4999999999855990    0.3373484855674996 Te
   0.0000000972506034    0.5000000007507357    0.5142454672652329 Te
  -0.0000000479740611   -0.0000000012724201    0.0089288003053073 S
