Cs1 Rb1 Te1 S1
1.0
   6.0000000000000000    0.0000000000000000    0.0000000000000000
   0.0000000000000000    5.0593638944088468   -0.0008029718117193
   0.0000000000000000   -0.0003720708962984   11.0619213656162092
Cs Rb Te S
1 1 1 1
direct
   0.0000000000000000    0.0000017204659943    0.1475324061623888 Cs
   0.0000000000000000    0.4999971753743521   -0.3236272933609356 Rb
   0.0000000000000000    0.5001571597892216    0.3790340058808423 Te
   0.0000000000000000   -0.0001560563639477    0.4637968838967963 S
