Ba1 Zr1 B1 O1
1.0
   5.9954241579413852    0.0372796712739447   -0.0405983952828023
   0.0543921136705564    3.2535970656299877    2.0614734286690450
  -0.0396131553686533    1.0663531241249689    9.2010304027560377
Ba Zr B O
1 1 1 1
direct
   0.0174472972001137   -0.1348132393318967    0.0112710572316913 Ba
   0.0261161333699714    0.1205821679489120    0.5127138317174370 Zr
  -0.0089000115223344   -0.1199987982524364    0.3415334758564142 B
   0.0004415805869448    0.7107928710287603    0.7821446344467510 O
