Ba1 Si2 Rh1
1.0
   6.0000000000000000    0.0000000000000000    0.0000000000000000
   0.0000000000000000    4.2530664224991730    0.0000013240111036
   0.0000000000000000   -0.0000015290423748    7.0567425901877794
Ba Si Rh
1 2 1
direct
   0.0000000000000000    0.5000004244506725   -0.2049310279255160 Ba
   0.0000000000000000    0.4999996810366800    0.3126982475346268 Si
   0.0000000000000000   -0.0000003298651346    1.1494619520374094 Si
   0.0000000000000000    0.0000002358305845    0.4835308205561659 Rh
