Rb1 Y1 In2 P2
1.0
   6.0000000000006288   -0.0000000000000418    0.0000000030312265
  -0.0000000000000454    6.0000000000002149    0.0000000134162311
   0.0000000030709602    0.0000000135659505    6.0793955825701307
Rb Y In P
1 1 2 2
direct
   0.3333330000076804    0.6666670000343263    0.7710407202497235 Rb
   0.3333329999824249    0.6666669999269651    0.4649901080565057 Y
   0.3333329999956048    0.6666669999811677    0.2374012748974156 In
   0.3333330000132226    0.6666670000544591    0.7733183096185691 In
   0.3333329999948934    0.6666669999965621    0.2895887916042351 P
   0.3333330000061749    0.6666670000065219    0.2068507997421742 P
