Cs1 Na1 Mn1 O2
1.0
   4.5955794508652801   -0.3325417038388175   -0.4160678417171346
  -0.3600441461471513    6.4867258862336161   -0.9971680672705810
  -0.3948016779632810   -1.0210280590017882    6.7702063555186935
Cs Na Mn O
1 1 1 2
direct
  -0.2455605961647454    0.0318642073843047    0.7541710335770818 Cs
   0.0440461240263586    0.5452361728913545    0.3079629806526747 Na
   0.1618983585414968    0.0405150432198264    0.3016902774109142 Mn
   0.1797664101421490    0.8877396582638821    0.4852268122977172 O
   0.0769677105033728    0.2152249303286483    0.1530259034465853 O
