Rb1 Na1 Sr1 Te1 S1
1.0
   5.2899622802393154   -0.0000010257415309    0.0000005806147943
  -0.0000010890616760    6.9831024685423388    0.9528766057854470
   0.0000003520769438    0.9826467595890467    8.0048371730091041
Rb Na Sr Te S
1 1 1 1 1
direct
   0.4999998949519367    0.6210642942105967    0.3599385153745596 Rb
   0.0000000040029292    0.0454008417818123    0.3813122724656843 Na
  -0.0000000698247849    0.1746058316012036    0.9389924456419146 Sr
   0.5000000586336971    0.2073126023795368    0.1651522224100170 Te
   0.0000001112236801   -0.1882425729740005    0.1574365470849322 S
