Na2 Ag1 As1
1.0
   6.0000000000000000    0.0000000000000000    0.0000000000000000
   0.0000000000000000    6.0646848858262352   -0.0454424479089306
   0.0000000000000000   -0.0458643467257101    6.1134985589957642
Na Ag As
2 1 1
direct
   0.0000000000000000   -0.0011199119799086    0.6201710950844974 Na
   0.0000000000000000    0.2740525247512160    0.3403427158224401 Na
   0.0000000000000000   -0.0085464159578790    0.0298219212469613 Ag
   0.0000000000000000   -0.0143861973754837    0.6655812621374950 As
