Cs1 Na1 Sb1 F2
1.0
   3.4737875351189618    0.0154589818616741    0.0971381314872009
   0.0957402175983591    5.1566430482607100    0.4136707021694673
   0.4158201858948370    0.3830976529953172    8.2485295155572835
Cs Na Sb F
1 1 1 2
direct
  -0.1786747769335434    0.5052859093927611    0.2425890934921102 Cs
   0.2970330744344737   -0.0392041903355238    0.5440955155184881 Na
   0.0320322804250661    0.4316695681089711   -0.2077373475498557 Sb
   0.2366372273016653    0.4226955588757196    0.5374933973487780 F
  -0.1802348069151148   -0.0280078471651797    0.3836483363788200 F
