Rb2 Na1 As1
1.0
   4.5896975490851979   -0.0067316009298465    0.0319428902477274
   0.0005773033454424    7.0361034816418373   -0.6313008932882362
   0.0219455276082713   -0.6185563096143951    8.9190509897562933
Rb Na As
2 1 1
direct
  -0.0020079666395849    0.6548859272977645    0.2126010690440491 Rb
   0.0070949713701320    0.4936093776400393    0.7153498716208354 Rb
  -0.0002805984195436    0.1506864755553830   -0.0040732678170841 Na
   0.5011485944896340    0.4107802230584944    0.9796453196279331 As
