Na1 Sn1 Ge1 P1
1.0
   5.9982716348734888    0.0173948555045122   -0.0096256661269794
   0.0168319686900255    6.3502302482513020    0.3936312362969078
  -0.0108191317561521    0.3985699942641594    5.5093346795713192
Na Sn Ge P
1 1 1 1
direct
   0.0020795905260616    0.0818621749178731    0.3825898076606108 Na
  -0.0028655758612505    0.5968210320030310    0.2501490768612696 Sn
   0.0304223360067112    0.5867710970216877    0.7182376601381218 Ge
   0.0045846492674073   -0.1135403189081789   -0.0973645514735985 P
