Cs1 Na1 Cd1 Sb1 As1
1.0
   4.1187343336947135    0.0000000033655004    0.0000000009132198
   0.0000000013205530    6.6759653928086298   -0.3604216847420302
   0.0000000007585216   -0.4077264848495870    7.0503404808183676
Cs Na Cd Sb As
1 1 1 1 1
direct
  -0.0000000005703022   -0.0053403374077766   -0.0888175440612403 Cs
  -0.0000000026174991    0.3731150022146838    0.5104450269247967 Na
  -0.0000000012246694   -0.1799485321045909    0.3865840060738904 Cd
   0.5000000016913833    0.5001256671250055    0.8817769655000331 Sb
   0.0000000001112105    0.5120481671104191    0.1279265529827443 As
