K1 Rb1 Sc1 S2
1.0
   4.0026223497487283   -0.0210350551133970   -0.6309224427140003
   0.1501291769878552    5.8614504076016392    1.0145563905014547
  -0.3936728134154983    1.0989366389481381    8.3422261630421204
K Rb Sc S
1 1 1 2
direct
  -0.0577225214436950   -0.2408322926650920    0.5710709080409500 K
   0.1714964869270543    0.1080715992234408   -0.0714532528023642 Rb
   0.7094026675370880    0.5145249325831941    0.1818392393603209 Sc
   0.5892505196767972    0.6176989160121490    0.8820305225110060 S
   0.2542388460574013    0.6672038319049418    0.2833645733991255 S
