Ba1 Na1 Bi1 Sb1
1.0
   4.6330588386801956    0.8979498341391386    0.0000000188159578
   0.7240584252468588    6.5658191974364062   -0.0000000137524382
   0.0000000125577425   -0.0000000116437057    5.0961194531958087
Ba Na Bi Sb
1 1 1 1
direct
  -0.0596853159854107    0.5976634627698245   -0.0000000009945394 Ba
  -0.2576110495510823    0.1538961636930710    0.5000000006601918 Na
   0.3739756316789723    0.7716813068766714    0.4999999983445377 Bi
   0.2766537307441605    0.0440310812246937    0.0000000001033018 Sb
