K1 Rb1 Li2 Bi1 Sb1
1.0
   5.1615202480573208   -0.0000000232106393   -0.0000000033166284
  -0.0000000167291680    6.8520877477842594    0.0036327845887638
  -0.0000000029334600   -0.0095603484027027    6.3903915549451789
K Rb Li Bi Sb
1 1 2 1 1
direct
  -0.0000000004748788   -0.0201393173679850    0.3337200645964241 K
   0.5000000006168210    0.5251985061264267    0.5988017677507970 Rb
   0.0000000079965354    0.1301329599914592   -0.1557287008415949 Li
   0.4999999929506093    0.3251056748982155    1.1023324166508479 Li
   0.0000000048920648    0.4904967219775813    0.0823533606821855 Bi
   0.4999999943037969    0.0104684421001892    0.8410730908488474 Sb
