Ba1 Li3 Bi1 As1
1.0
   4.9863886409779621    0.0053148227909837    0.0066177155598739
   0.0044216851148257    6.3357433973342570    0.7327611585348104
   0.0058115491527458    0.6851122465583830    5.2791950623091815
Ba Li Bi As
1 3 1 1
direct
  -0.0007174371337026    0.6648038131266607    0.7934155540622447 Ba
  -0.0006545904646620    0.0677824925596197    0.1475547060034670 Li
   0.0027394104826525    0.2150056917644772    0.5645484781349807 Li
   0.5001364374565501    0.1602860095769783    0.8803404644080172 Li
  -0.0005808025394064    0.0760679660420483    0.1673676638647141 Bi
   0.4990769817285574   -0.0607759733825878    0.4311441373193151 As
