K1 Rb1 Li2 Bi1 Sb1
1.0
   5.6187291070223457    0.0000000289321205   -0.0000000144128956
   0.0000000303033253    5.1027783321480698   -1.2372668804265505
  -0.0000000098041417   -1.2567750555018988    7.1361030770288600
K Rb Li Bi Sb
1 1 2 1 1
direct
   0.0000000002217230    0.0890771360218807    0.4769545305005109 K
   0.4999999997586878    0.5765573121996198    0.5720440718765908 Rb
   0.0000000005287545    0.4810973032858272    1.0389026300386655 Li
   0.4999999995671998    0.1995238614480272    0.9728678903490932 Li
   0.5000000014424194   -0.2022582494941447    0.1441908366927195 Bi
   0.0000000010327571   -0.0878883565030224   -0.0894009643527490 Sb
