Li1 Mg1 Zn1 Rh1
1.0
   3.1558965406333077    0.0005518463248060   -0.0398446394054050
   0.0005540443344040    3.1559034354701021   -0.0398453107155731
  -0.0530656546385520   -0.0530641451422418    6.4457812989662813
Li Mg Zn Rh
1 1 1 1
direct
  -0.1229397353083696   -0.1229401412907321    0.5284380669548795 Li
   0.3867505381655285    0.3867507608608122    0.2232447070406165 Mg
   0.3608332662683600    0.3608336280931012    0.7697520718031216 Zn
  -0.1246440682459920   -0.1246442559970989   -0.0214348367124349 Rh
