Ba1 Ag1 Bi1 As1
1.0
   6.0000000000000000    0.0000000000000000    0.0000000000000000
   0.0000000000000000    6.2082265274139159   -0.0000000018097943
   0.0000000000000000   -0.0000000015188952    7.9135431100117799
Ba Ag Bi As
1 1 1 1
direct
   0.0000000000000000    0.4999999994873581    0.2819030520062429 Ba
   0.0000000000000000    0.0000000003251917   -0.0887536927103277 Ag
   0.0000000000000000   -0.0000000000095232    0.5601476006250756 Bi
   0.0000000000000000   -0.0000000001732024    0.2256800330300025 As
