K1 Ba1 Te1 Se1 S1
1.0
   4.7360644511254630   -1.3335867644310970   -0.9913924226794952
  -1.3555893421666112    6.3792065516443586    0.1425124642570275
  -1.0308579953062285    0.1000368442058614    6.2968283672336725
K Ba Te Se S
1 1 1 1 1
direct
   0.0457818405308914    0.0644429637522732    0.2201749020735518 K
  -0.0121689333516615    0.5547306621898974    0.7095839060200489 Ba
   0.6883225041836727    0.9559159437974021    0.6357750167565607 Te
  -0.3001887557871482    0.4462751796163292    0.1229171729184048 Se
   0.2449193340045360    0.6362962756262751    0.2781180073423501 S
