Cs1 Rb1 Li2 Bi1 Sb1
1.0
   5.2964391750846485   -0.0000000347730086   -0.0000000937203418
  -0.0000000408395783    6.0110175353997670   -0.2598530005719030
  -0.0000000752388495   -0.3269537066489138    6.6456330292815240
Cs Rb Li Bi Sb
1 1 2 1 1
direct
   0.5000000100571639    0.5480143029379160    0.5797684962116986 Cs
  -0.0000000084233036    0.0367182103367172    0.4893817566423921 Rb
   0.0000000032349509    0.0694723797078383    1.0010873568346490 Li
   0.5000000442714220    0.3938990023007833    1.0651355543166723 Li
   0.4999999931621227   -0.0919444977929034    0.0884260337745392 Bi
  -0.0000000440831002    0.5498906076105172    0.1047557832546588 Sb
