Cs1 Na1 Sc1 F2
1.0
   3.6058626626005883    0.0985392940433794   -0.2622717082639365
   0.0838474255966937    7.9399649351491659   -1.5349099857232444
  -0.2579736400938432   -1.3225092040883437    6.2428928504486318
Cs Na Sc F
1 1 1 2
direct
  -0.0172238185520337    0.5440702141531817    0.2390835009748011 Cs
  -0.0754009259675563   -0.0675639269961599   -0.0463249404795020 Na
   0.1650915734915530    0.1495517324927234    0.5829077991725596 Sc
   0.1535099676497417    0.1761868235105531   -0.0956969938853963 F
   0.0024361989339064   -0.0589708445530391    0.3203196263611983 F
