Ba3 Te2 S1
1.0
   5.9566382284358390    0.0000000000426581    0.0000000052188602
   0.0000000000414549    5.7522895908890215    0.0000000048297070
   0.0000000053640445    0.0000000051302880    6.1513266672756437
Ba Te S
3 2 1
direct
   0.5000000000559647    0.5000000000438681    0.5661205471828631 Ba
   0.0000000008844017    0.0000000008130887    0.7229337912118935 Ba
  -0.0000000009347795   -0.0000000009247521    0.7659061002273763 Ba
   0.4999999998679248    0.4999999999054038    0.0648906321960442 Te
   0.0000000000132187    0.5000000000613884    0.2703260062945735 Te
   0.5000000001024929    0.0000000000392001    0.3069709246954100 S
