Ba2 Cd1 Sb1 As1 P1
1.0
   5.9470777842070284    0.0000000002107035    0.0000000026558447
   0.0000000002106809    5.9470777842508369    0.0000000028535900
   0.0000000032752414    0.0000000034549497    7.2740728846087901
Ba Cd Sb As P
2 1 1 1 1
direct
  -0.0000000000029877    0.0000000000727401    0.3232013777842707 Ba
   0.4999999999722043    0.4999999999659250    0.4215316188826593 Ba
   0.5000000000199155    0.5000000000303715    0.0838773004453332 Cd
   0.4999999999562939    0.4999999999833977    0.7825142869123485 Sb
   0.0000000000211283    0.0000000000142583    0.2054697807678743 As
   0.5000000000081776    0.5000000000214154    0.2199206389805519 P
