Cs1 Au2 Br2
1.0
   6.0057844280871322    0.0447409599270276   -0.2444748959462360
   0.0519601025645499    7.0589142675066263   -0.1377055730525410
  -0.2121417662940027   -0.1111396449353497    7.8002503438692941
Cs Au Br
1 2 2
direct
  -0.0210046020923530    0.4881238938003086    0.2603592270171969 Cs
   0.0007576062267806    0.0045564442680686   -0.0526565275302272 Au
   0.0000254874044144    0.0001898663605030    0.6099701392224153 Au
   0.2906171277785031    0.2474171562659973   -0.0779592000619564 Br
  -0.0418436195610019   -0.0117353609076975    0.2954143737769202 Br
