Cs1 Na1 Sc1 F1
1.0
   3.7201435324268552    0.0231694795512602   -0.0583684270325878
   0.0231721679319481    3.7201539766590663    0.0583820033254343
  -0.0883775605778044    0.0883820152493098    9.4264837841244127
Cs Na Sc F
1 1 1 1
direct
   0.3783310469553612    0.6216702529239354    0.6712698682698760 Cs
  -0.1173611650415467    0.1173662855377886    0.0173977060306326 Na
   0.3966194045132479    0.6033818751220853    0.2650121483013098 Sc
   0.3424097137626877    0.6575825838589540    0.0533112833483432 F
