Cs1 Na1 Sc1 F2
1.0
   3.6058470564073546    0.0985215875602285   -0.2622878507241979
   0.0838383073459842    7.9399796612773947   -1.5349236755533087
  -0.2579875017030215   -1.3225219418833447    6.2428976136329632
Cs Na Sc F
1 1 1 2
direct
  -0.0172320688728470    0.5440687427944434    0.2390803972557199 Cs
  -0.0753880484512282   -0.0675620198544541   -0.0463275398082459 Na
   0.1650880387813835    0.1495520290830655    0.5829020059149216 Sc
   0.1535118888970270    0.1761891255651089   -0.0957027166372524 F
   0.0024331969946937   -0.0589738715561946    0.3203168702015521 F
