Ba2 Os1 O2
1.0
   5.3921298854896218    0.0104227538685494   -0.3956337483072292
   0.0906989756309657    8.3655151761935223    0.8663880876423511
  -0.4033375317616066    0.5352187885461350    4.8624979390329326
Ba Os O
2 1 2
direct
   0.0317422551838619    0.4266498221822123    0.4000416206913495 Ba
   0.0804156984226246   -0.0454283214137872    0.7189806352859397 Ba
   0.0235021329168347    0.2004188377254163    0.0325466164570223 Os
   0.2741097371595335    0.2194651722570686   -0.1881828650913879 O
  -0.1678678264526048    0.1580064869122369    0.3184339959592694 O
