Sr1 Si2 Ir1
1.0
   6.0000000000000000    0.0000000000000000    0.0000000000000000
   0.0000000000000000    4.1430553239530576    0.0000001057366589
   0.0000000000000000    0.0000000606158971    8.4423089929211681
Sr Si Ir
1 2 1
direct
   0.0000000000000000   -0.0000000016234985    0.6210086805808434 Sr
   0.0000000000000000    0.5000000186076264    0.3518969865300208 Si
   0.0000000000000000   -0.0000000063947934   -0.0116547985104059 Si
   0.0000000000000000   -0.0000000107227823    0.2423851370853708 Ir
