Ba2 Te3 S1
1.0
   4.8570728143581174   -0.0000000064223233    0.0000000169463285
  -0.0000000063959414    8.5041354768226967    0.8606287424606498
   0.0000000124927379    0.7227723450908120    6.6542388442586340
Ba Te S
2 3 1
direct
  -0.0000000002202638    0.0526827367450902    0.7154043793035022 Ba
   0.0000000014117927    0.6147053085394528    0.3656274202719099 Ba
  -0.0000000024405560    0.5749525090123000    0.8712276339924350 Te
   0.5000000029819422    0.3500675604010608    0.6187845408559497 Te
  -0.0000000009894146    0.2692107868527941    0.1573354079062037 Te
  -0.0000000006303460   -0.0211809178324141    0.2131616325921317 S
