K1 Li1 Mo1 O1
1.0
   6.0000000000000000    0.0000000000000000    0.0000000000000000
   0.0000000000000000    5.9955392038242561    0.1334914175761892
   0.0000000000000000    0.1181949055766883    7.2228894789899867
K Li Mo O
1 1 1 1
direct
   0.0000000000000000    0.0095179012115579    0.4828758320678452 K
   0.0000000000000000    0.3167630797551012    1.0100336744041787 Li
   0.0000000000000000   -0.1929327828821997    0.9995902861965451 Mo
   0.0000000000000000    0.0621918013919825    0.1409062007691706 O
