K1 Na1 Ag1 P1
1.0
   5.9860663977760460   -0.1121291241141791   -0.0156145590797213
  -0.1110209067808134    5.9025660328246934    0.0256772896572902
  -0.0164271405941788    0.0261222259582726    5.6955679435534998
K Na Ag P
1 1 1 1
direct
   0.1823032795395997    0.2687409119369960    0.1468493280046883 K
   0.3466636306209901    0.7545950711130358    0.5827989083592056 Na
   0.5144320907957992   -0.0320064625194949   -0.0164506346499503 Ag
   0.3858250009060717    0.7586704786989744    0.5531663942065083 P
