Cs1 Rb1 Sc1 S1
1.0
   3.9500241919486450    0.0000000000000000    0.0000011851081942
   0.0000000000000000    6.0000000000000000    0.0000000000000000
   0.0000000210226492    0.0000000000000000   12.8011382222766308
Cs Rb Sc S
1 1 1 1
direct
  -0.0000000126764597    0.0000000000000000    0.8025522624937820 Cs
   0.4999999849594031    0.0000000000000000    0.4243288622334560 Rb
   0.5000000600342099    0.0000000000000000    0.1233566007370568 Sc
  -0.0000000327920795    0.0000000000000000    0.2311882734720846 S
