Rb1 Ba1 Te1 Se2 S1
1.0
   7.2389267024007218    0.0000000002806102   -0.2209078225061587
   0.0000000002702626    7.3955147456482901   -0.0000000137776427
  -0.2145643689435411   -0.0000000156391309    6.2707749087084030
Rb Ba Te Se S
1 1 1 2 1
direct
   0.0690209965239445    0.4999999982691926    0.3462388993879017 Rb
   0.3180394779912503    0.0000000000631695    0.7847795067787279 Ba
   0.5673074752174728    0.4999999985870141    0.7887233779170365 Te
   0.5907304380423685    0.0000000015660757   -0.0750014393273244 Se
   0.0592154661893808   -0.0000000000321456    0.2769529845923617 Se
   0.5535651438397463    0.0000000010528027    0.0698216628141873 S
