Ba1 Al1 N2
1.0
   6.0000000000000000    0.0000000000000000    0.0000000000000000
   0.0000000000000000    5.3386171322676077   -0.3157496414166263
   0.0000000000000000   -0.2355121201850865    4.6575159298360189
Ba Al N
1 1 2
direct
   0.0000000000000000    0.6357807880440268    0.4861773964866853 Ba
   0.0000000000000000    0.2228013674420178   -0.0564900733682136 Al
   0.0000000000000000    0.1200862999398862    0.5531883771770520 N
   0.0000000000000000    0.0627585501813137    0.2695652931850196 N
