Cs1 Na1 Ag1 Au1
1.0
   6.0000000000000000    0.0000000000000000    0.0000000000000000
   0.0000000000000000    5.2339633166858821   -0.2443729260432434
   0.0000000000000000   -0.1257352046476734    9.4332786206060959
Cs Na Ag Au
1 1 1 1
direct
   0.0000000000000000    0.0354571630918618    0.9803538020199051 Cs
   0.0000000000000000    0.4029115207322854    0.4450520360908288 Na
   0.0000000000000000   -0.0797673496432102    0.6069723677352459 Ag
   0.0000000000000000   -0.1086013258320985    0.3171697925498556 Au
