Ba1 Na2 As1
1.0
   4.7004778459522862   -0.0000000215835792   -0.0045349600290011
  -0.0000000220724600    4.6841154739357567   -0.0000000514596197
   0.0112776006856678   -0.0000000377678934    6.7476271441355937
Ba Na As
1 2 1
direct
   0.4728029896045158    0.4999999928537176   -0.0234791671275034 Ba
   0.4744672854813512    0.0000000003323311    0.5855100978575185 Na
  -0.0256213662453521   -0.0000000050062258    0.3005855275464180 Na
  -0.0256319031823276    0.0000000108793219    0.8555515460482421 As
