Ba1 Li1 Re1 O2
1.0
   4.6496212009960551   -0.1143323586011713   -0.1715579070668856
  -0.1187613468313816    5.1648223498554025    0.2005245380018481
  -0.1974826727318121    0.1887469990712238    5.5451500116861183
Ba Li Re O
1 1 1 2
direct
  -0.2824242870432108    0.5011920002240982    0.0731726531438697 Ba
   0.0890943781217408   -0.0476358834713556    0.6085443920529335 Li
   0.1914332573859608   -0.0380175063074863    0.1006822258422832 Re
   0.2385663379833944    0.7084382674313942   -0.1091623503804979 O
  -0.0114636868542403    0.1260231200404278    0.3087440860995829 O
