Ca1 Al2 Au1
1.0
   6.0000000000000000    0.0000000000000000    0.0000000000000000
   0.0000000000000000    4.5464455643589403   -0.0000018947223949
   0.0000000000000000   -0.0000015041222032    6.8353737664289644
Ca Al Au
1 2 1
direct
   0.0000000000000000    0.5000001540045405    0.1055642615985345 Ca
   0.0000000000000000    0.4999998938925872    0.5848252535960368 Al
   0.0000000000000000   -0.0000000829869285    0.7844552512138253 Al
   0.0000000000000000    0.0000000320280121    0.3981772498576898 Au
