K2 Rb1 In1 Cl1
1.0
   4.6585623842084232    0.0900054636642922    0.9420281146700905
   0.0682936581981816    7.0533960811691507   -1.6634742622697432
   1.1231619487498492   -1.6507142031022737    9.3790085076336567
K Rb In Cl
2 1 1 1
direct
   0.1287457025208918    0.1932720729942138    0.5042145677513888 K
   0.5050737022257838   -0.1760276403068157    0.7940131298485871 K
   0.3936868385004618    0.5287064569310270    0.1861811988173550 Rb
  -0.1641712687148257    0.0222233373162229    0.1642364359265067 In
   0.1638510307365510    0.6348247728767252    0.5600046661544305 Cl
