Li1 Mg1 In1 Rh1
1.0
   3.2641565374145092   -0.0264000468342808    0.0254283890376211
  -0.0263992874305654    3.2641605184542288    0.0254268918304341
   0.0056790964425134    0.0056786211807868    6.6087783023631497
Li Mg In Rh
1 1 1 1
direct
  -0.1168431611586955   -0.1168432602908686    0.5032389014624158 Li
   0.3701245440083995    0.3701245008458856    0.2243060135590197 Mg
   0.3780943091171139    0.3780944522884291    0.7647522243321120 In
  -0.1313756832483713   -0.1313756943165570    0.0077028686135323 Rh
