Na3 Cd1 Sb1
1.0
   3.4086346007673392   -0.0000000711571951   -0.0000006046920281
  -0.0000000694546247    8.8610590415492680    0.1624710648923476
  -0.0000003743125906   -0.0131239454906185    5.3630392601217736
Na Cd Sb
3 1 1
direct
  -0.0000000033015030    0.0541982970636253    0.5787238053909866 Na
  -0.0000000140608461    0.3544083058691495    0.1548658566368699 Na
   0.0000000031196242    0.6476994586680486    0.6000632314991764 Na
   0.0000000249148776   -0.1573247568703593    0.0849167408576059 Cd
   0.4999999923605811    0.3510186683092649    0.6553773588779476 Sb
