Sr1 Si2 Pt1
1.0
   6.0000000000000000    0.0000000000000000    0.0000000000000000
   0.0000000000000000    4.1219287644057232   -0.0000000166197135
   0.0000000000000000   -0.0000000056716750    8.6043362838109090
Sr Si Pt
1 2 1
direct
   0.0000000000000000   -0.0000000001511131    0.6226938677348405 Sr
   0.0000000000000000    0.5000000188389687    0.3499562132020523 Si
   0.0000000000000000    0.0000000078432783    0.9793472899999205 Si
   0.0000000000000000   -0.0000000260139825    0.2466956301617131 Pt
