Rb1 Na1 Li6 Sb1
1.0
   4.9116789922172543   -0.0808364067104049    0.2977576412396079
  -0.0379144835496840    7.1326401674994671   -0.3516736243240271
   0.2040956074246936   -0.3348187026806949    7.3321847567893554
Rb Na Li Sb
1 1 6 1
direct
   0.0183870485367979   -0.3197008627755180    0.2454884318980694 Rb
   0.4268485294440116   -0.1023607965818641    0.6202968447793251 Na
  -0.0164493061363531    0.1948694689510186    0.4845967973247228 Li
   0.4875594610859072    0.5254693446745565    0.8992379157877742 Li
   0.4998808922121394    0.1613620247651697    0.1689287047656674 Li
  -0.1239769181758307   -0.1197871928538488    0.8656341363829132 Li
   0.0468856900420848    0.2510719069808331   -0.0952466104101140 Li
   0.5024815304001450    0.4247650317274259    0.5385014435174128 Li
  -0.0116169278189205    0.5413951009871241    0.7110203171326075 Sb
