K3 Li3
1.0
   5.3705837641251799   -0.3705842868818148   -0.4545615925317582
  -0.4145785873630543    6.5096549624415427    0.9142883903017408
  -0.4846582577936753    0.7599775238697082    8.3240785243009139
K Li
3 3
direct
   0.0497697235759376   -0.0727569119426270    0.5823444264746315 K
   0.6430492179467316    0.3831820563162753    0.5961396657753329 K
   0.6274240678239678    0.7572411280267076    0.9984814987443588 K
  -0.1032337779561655    0.2649204482803619    0.1388278262876802 Li
   0.3873432694591721    0.0888222961427143    0.2262516763279502 Li
   0.1882704964635638    0.6046229730753456    0.3020179301118925 Li
