Cs1 Na1 Bi1 Rh1
1.0
   6.0000000000000000    0.0000000000000000    0.0000000000000000
   0.0000000000000000    5.9335002744544161    0.0000000011954139
   0.0000000000000000    0.0000000013208857    5.8563583456849750
Cs Na Bi Rh
1 1 1 1
direct
   0.0000000000000000    0.4999999968052316    0.3086418884561637 Cs
   0.0000000000000000    0.0000000000098529    0.4998057031609922 Na
   0.0000000000000000    0.5000000105912589    0.1497084018287025 Bi
   0.0000000000000000    0.4999999926270181    0.2120290089681913 Rh
