Cs1 Rb1 Y1 F1
1.0
   3.5197253496988314    0.5217395852194554    1.4101326236277174
   0.3821574875153222    9.9120534356281382    0.7914693807150510
   0.8125787197060131    0.8526241271492456    6.8662677752892280
Cs Rb Y F
1 1 1 1
direct
  -0.0964675776485893   -0.1606525946212606   -0.0015336736022297 Cs
   0.0815639508337042    0.2933089631691569    0.0849744093159799 Rb
   0.0275430311406277    0.5467283487133698    0.5339183819024628 Y
   0.1873605992907406    0.0210502744468057    0.1326408820972340 F
