Na2 Bi1 As1
1.0
   4.8850127350220207    0.0000000053101651    0.0000000242763464
   0.0000000067463708    4.5015868820894482    0.0000000579921006
   0.0000000240354843    0.0000000321667034    5.2833212372011644
Na Bi As
2 1 1
direct
   0.5000000041578913    0.5000000373050941    0.1800378926063991 Na
   0.0000000020886932    0.4999999453295406    0.5957845756471916 Na
   0.0000000024686883    0.0000000049889250    0.0421859715746904 Bi
   0.4999999937982649    0.0000000111454162    0.7769855607477212 As
