Cs1 Na1 Ca1 F2
1.0
   3.6771677593365446    0.2010392624507447   -1.1306780802449095
   0.0758377246201558    7.6353787332417733   -0.2389114692758716
  -0.6864870678893853   -0.1421584561128729    7.8590504783503210
Cs Na Ca F
1 1 1 2
direct
  -0.2291175666790520    0.5408628299826671    0.2109834165044345 Cs
   0.0784819249099068    0.0850765664030727    0.4208888615985237 Na
   0.2241352014157022    0.0206086136278658    0.0110090876201490 Ca
   0.2934917753917231    0.2291238353774464    0.2189769777580213 F
  -0.1601983421033973   -0.0832328401866074    0.1392106803076464 F
