Cs1 Rb1 Ag1 S1
1.0
   7.1843047524429906    0.0000041264552791    0.0485671570336699
   0.0000073164369649    4.3131604236166439    0.0000432897017209
   0.1917441081769547    0.0000292276067433    6.8925574800095681
Cs Rb Ag S
1 1 1 1
direct
  -0.0700717358711082    0.7499996398485559   -0.0933361545804197 Cs
   0.3874849494989062    0.7500052860594608    0.4531302915611357 Rb
   0.4189632769102781    0.7499960764569260    0.9336319517929889 Ag
   0.2976565034357444    0.2499989949343690    0.8123229048696675 S
