Ba1 Na1 Ag1 P1
1.0
   5.9931282183006580    0.0000000000801465    0.0041026663492492
   0.0000000000788914    5.8491740259721556    0.0000000002162483
   0.0033852074215622    0.0000000002151745    5.5321089644476302
Ba Na Ag P
1 1 1 1
direct
   0.0015184391227918   -0.0000000000022393    0.4142158023561647 Ba
   0.0940204701753566    0.5000000000531434    0.5942236969771674 Na
   0.0026678239762585   -0.0000000000040556   -0.0039258453444167 Ag
   0.0138762663229296    0.0000000000008066    0.4715223466608228 P
