Rb2 Te1 S1
1.0
   5.7627505700840453   -0.2505126008233806    0.0432452025022906
  -0.2728135823488611    6.9464459018326838    0.2280761082114997
   0.0368959438378039    0.2005489212337042    5.4240387721722154
Rb Te S
2 1 1
direct
  -0.0665577679329056    0.1041174720073557    0.0644022315853266 Rb
   0.4523815094186822    0.6238990619748973    0.7552864776630125 Rb
  -0.0495314072759464    0.5818141888785638    0.3340797113288922 Te
  -0.0029593344130670   -0.1431637214529053    0.5829245794760592 S
