Ba2 Zn1 As2 P1
1.0
   6.4080237458679123   -0.0000000010951543   -0.0000000048767209
  -0.0000000010951986    6.4080237458618274   -0.0000000048590495
  -0.0000000046550295   -0.0000000046399835    6.2114451524318124
Ba Zn As P
2 1 2 1
direct
   0.0000000000262743   -0.0000000000998791    0.3533873810801728 Ba
   0.4999999999595323    0.4999999999628442    0.5221127758773457 Ba
   0.5000000000149390    0.5000000000206946    0.8839391376936042 Zn
   0.5000000002551852    0.5000000002488605    0.8220291847781432 As
  -0.0000000002040785   -0.0000000002209811    0.2161598875923128 As
   0.5000000000100128    0.5000000000127348    0.1496356341570810 P
