Na1 Li1 Sb1 P1
1.0
   5.1356756181694809    0.6390960690415729   -0.8654537330676109
   0.5455498710644807    4.7004110839793700    0.0902045939284504
  -0.8948797024083981    0.0352870783229019    4.1359339052910187
Na Li Sb P
1 1 1 1
direct
   0.5282490618481670    0.0835759713879624    0.3594705291544271 Na
  -0.1712823665452614    0.4881066132415989    1.0068726737173481 Li
   0.1893598174371993    0.6661164017644006    0.6647934063594001 Sb
  -0.0185805203970605   -0.0488580391518445    0.0672343974756479 P
