Li1 Mg1 Zn1 Rh1
1.0
   3.2625834903985078   -0.0004370395297784    0.1208848208149209
  -0.0004352515042480    3.2625997341729667    0.1208869509409513
  -0.1462282683555412   -0.1462251305829056    5.8236390421498658
Li Mg Zn Rh
1 1 1 1
direct
   0.3727422145968606    0.3727422503780458    0.2181468679487074 Li
  -0.1266445448365898   -0.1266440365133757    0.5006878409028969 Mg
   0.3802233468370134    0.3802230160903651    0.7872144857544782 Zn
  -0.1263210031830080   -0.1263212338322910   -0.0060491932491174 Rh
