Ba2 Te2 C1
1.0
   5.9999999999999982    0.0000000000000000    0.0000000000000000
   0.0000000000000000    5.9591888103182651    0.0000000217659440
   0.0000000000000000    0.0000000221870689    5.8728157047078824
Ba Te C
2 2 1
direct
   0.0000000000000000   -0.0000000000376055    0.5918929044153549 Ba
   0.0000000000000000    0.4999999998021257    0.2237025936783346 Ba
   0.0000000000000000    0.4999999999276246    0.3012174385585824 Te
   0.0000000000000000    0.5000000006394479    0.3534578123341811 Te
   0.0000000000000000   -0.0000000003295895    0.0124192603035305 C
