Cs1 Rb1 I2
1.0
   5.1503819087195097    1.2736760498549018    0.0190460436670537
   1.1972723278400981    6.9792495060258455    0.1125149159796398
  -0.0526661699420860    0.3518056766442111    7.3318644452944488
Cs Rb I
1 1 2
direct
  -0.1753466530835610    0.6302282860688126   -0.1193081857921616 Cs
   0.1075750851972794    1.0860517542319346    0.3206195462345591 Rb
   0.0715969580200127    0.0634055986258921    0.8200463324675682 I
   0.4012966031969089    0.4968763454465149    0.2659063056915383 I
