Cs1 Cd1 Cl2
1.0
   4.9038822001858140   -0.1811604416473767    1.2509587285864332
  -0.1262604812378510    4.9666620934938503   -1.2739106277135686
   0.9896651742619789   -1.2679425499455137    9.7743038985390527
Cs Cd Cl
1 1 2
direct
  -0.0558917052703299    0.8243259819708164   -0.0380824829700458 Cs
   0.0929452815799586   -0.0625624492337322    0.4371090642698774 Cd
   0.2735850672450210    0.6165568206577946    0.1608624519788922 Cl
  -0.0323016422413637    0.1606396488424009    0.7197909727369961 Cl
