Na1 Si2 Rh1
1.0
   6.0000000000000000    0.0000000000000000    0.0000000000000000
   0.0000000000000000    4.4142927114524948    0.0000000089071546
   0.0000000000000000    0.0000000077733309    7.9711167357022381
Na Si Rh
1 2 1
direct
   0.0000000000000000    0.0000000000376408    0.6276631754709731 Na
   0.0000000000000000    0.5000000000680069    0.2952631956565793 Si
   0.0000000000000000   -0.0000000001037374    1.0065105327900576 Si
   0.0000000000000000    0.0000000006351973    0.2688301029293281 Rh
