Ba1 Sr1 Zn1 Cd1
1.0
   6.0000000000000000    0.0000000000000000    0.0000000000000000
   0.0000000000000000    5.2540528194462892    0.0205931373346871
   0.0000000000000000   -0.0224091423700571    8.5595204580549673
Ba Sr Zn Cd
1 1 1 1
direct
   0.0000000000000000    0.5009693991454138    0.4554990382764336 Ba
   0.0000000000000000    0.5063045351994288   -0.0567711546663701 Sr
   0.0000000000000000    0.0036239431731612    0.7208823057943347 Zn
   0.0000000000000000    0.0060961262882401    0.1735197996895486 Cd
