Rb1 Al1 F2
1.0
   5.6424148692762728   -0.0244051864661548   -0.0000413498642650
  -0.0107563469866420    6.3167789907144565   -0.0000380887612513
  -0.0000816997931081   -0.0001322542910552    3.9472559642310170
Rb Al F
1 1 2
direct
   0.0467415431995274    0.5021259633427573    0.4999255581366832 Rb
  -0.0348355748108753    0.0074980825272367   -0.0005596847208135 Al
   0.1735484904254025    0.2227736372151037   -0.0000266583920204 F
   0.0165455440638821   -0.0062906745917638    0.5006607874574611 F
