Na2 Al1 Au1
1.0
   6.0000000000000000    0.0000000000000000    0.0000000000000000
   0.0000000000000000    5.7359609361737975    0.1867556565865954
   0.0000000000000000    0.1763780973741244    8.1405301822914264
Na Al Au
2 1 1
direct
   0.0000000000000000   -0.0686038502885080    1.0211986196960421 Na
   0.0000000000000000    0.3865973387997620    0.3248632563097213 Na
   0.0000000000000000    0.0581182381718831    0.6463681069521914 Al
   0.0000000000000000   -0.1261117199989799    0.3795080166583189 Au
