Cs1 Rb1 Sc1 F2
1.0
   4.5558803118461615   -0.2906090749572969   -0.4397640780596892
  -0.1626136294348619    8.3990737633454309   -1.1848658604868383
  -0.3611858058002342   -1.0086826066467554    8.5384126626875059
Cs Rb Sc F
1 1 1 2
direct
  -0.0705159332696565    0.4656044514251581    0.1652732420808549 Cs
   0.0256400237894385    0.1105666110770417    0.5881828831836932 Rb
   0.1308131778454299   -0.0119460025663035    0.0591963563329332 Sc
   0.1644130968859067    0.1474480727153303   -0.0622192965958603 F
  -0.0219373652142836    0.0316008726231256    0.2581728084239759 F
