Cs1 Rb3 Te1
1.0
   5.9999999999999982    0.0000000000000000    0.0000000000000000
   0.0000000000000000    6.0607974816072723   -0.0000000042117030
   0.0000000000000000   -0.0000000041603225    5.9613172890029791
Cs Rb Te
1 3 1
direct
   0.0000000000000000    0.0000000000285088    0.5058672421786934 Cs
   0.0000000000000000    0.5000000000039400    0.1794193358631639 Rb
   0.0000000000000000    0.5000000000076438    0.1795885936240880 Rb
   0.0000000000000000    0.4999999999981674    0.2403185088993404 Rb
   0.0000000000000000    0.4999999999969114    0.2473563174430669 Te
