Cs1 Rb1 Li4
1.0
   5.9999999999999991    0.0000000000000000    0.0000000000000000
   0.0000000000000000    7.7257464468693282   -0.1040813337993473
   0.0000000000000000   -0.1091785320847621    7.1119289978347666
Cs Rb Li
1 1 4
direct
   0.0000000000000000    0.5940037845788079    0.3699322116817786 Cs
   0.0000000000000000    0.5837331139963594   -0.1282185037739417 Rb
   0.0000000000000000   -0.0893238181810458    0.9216381883011930 Li
   0.0000000000000000    0.2574930956282490    0.7950613554331315 Li
   0.0000000000000000    0.2620624862603371    0.8430312393741838 Li
   0.0000000000000000    0.1102613277483900    0.3167565116837711 Li
