Rb1 Y1 Zn1 In1
1.0
   6.0000000000003109    0.0000000000000075    0.0000000019823936
   0.0000000000000141    6.0000000000005143    0.0000000134857438
   0.0000000020042629    0.0000000136917240    6.1142660072103689
Rb Y Zn In
1 1 1 1
direct
   0.3333329999968336    0.6666669999772655    0.7358523418852371 Rb
   0.3333330000043112    0.6666669999067374    0.2542903331920269 Y
   0.3333329999999898    0.6666670000484222    0.2281659083175771 Zn
   0.3333329999988656    0.6666670000675758    0.2166774188683035 In
