Ba3 Te2 S1
1.0
   6.0213744587160587   -0.5640064841581108   -0.0133387833267566
  -0.5640064982932619    6.0213745664920104    0.0133393670160901
  -0.0080344875641035    0.0080347739122094    8.8200581722068687
Ba Te S
3 2 1
direct
   0.0095988535953051   -0.0095991120071597    0.8718816642504469 Ba
   0.3058162046198316    0.6941838598450264    0.2487607418916184 Ba
   0.6971815558400272    0.3028185405259444    0.2812430926781376 Ba
   0.3059742291670162    0.6940258390049561    0.2478367794925292 Te
   0.0108934711304405   -0.0108934367386560    0.5060334323777111 Te
   0.0038686872300304   -0.0038686923227996    0.1843832662602364 S
