Sr1 Li1 Mn1 N1
1.0
   3.7373166752708955    0.0360929430511287    0.5763436488509798
   0.2122444630260186    3.5160388550571882   -0.9460014142803674
   0.3685690678150372   -0.6535527740462648    6.0266556014985131
Sr Li Mn N
1 1 1 1
direct
   0.0254577834330740   -0.0284135562599885    0.4073880936623521 Sr
   0.2111681782412775    0.6620343425389432    0.8665841751833769 Li
  -0.3493834042451444    0.2402083175669953    0.0341063662163997 Mn
   0.1431844393155552    0.2618989152090705    0.0554993891165364 N
