Cs1 K1 Bi1 Pd1
1.0
   6.0000000000000000    0.0000000000000000    0.0000000000000000
   0.0000000000000000    5.4882097020878824    0.0065557651857476
   0.0000000000000000    0.0059216017127272    6.1652005623644666
Cs K Bi Pd
1 1 1 1
direct
   0.0000000000000000    0.4723579034665849    0.3574032708627417 Cs
   0.0000000000000000   -0.0007266458395845   -0.1266446523157432 K
   0.0000000000000000    0.5251598118138393    0.3395849614381941 Bi
   0.0000000000000000    0.0032089307792291    0.3887834244739379 Pd
