Ba2 Cd1 N1
1.0
   4.3974400004512653   -0.0000000863549348    0.0000029577138114
  -0.0000000771566887    4.8659737385171002   -0.0000001196350899
   0.0000014518765770   -0.0000000789288369    7.4128177660585912
Ba Cd N
2 1 1
direct
   0.4999999297087099    0.5000000521233643    0.6244315231338488 Ba
   0.0000000824822754   -0.0000000138261538    0.2917508531551469 Ba
   0.0000000234597727   -0.0000000069806807   -0.2065097675239244 Cd
   0.4999999698815477   -0.0000000337342793    0.4778553954130461 N
