Rb1 Al1 F2
1.0
   6.0000000000000000    0.0000000000000000    0.0000000000000000
   0.0000000000000000    4.9958095431681224   -0.0721075394499554
   0.0000000000000000   -0.0998222705027024    5.8283870706556051
Rb Al F
1 1 2
direct
   0.0000000000000000   -0.0549457120773799    0.6630744551553011 Rb
   0.0000000000000000    0.4941617165457652    0.1681450232368812 Al
   0.0000000000000000    0.4519741561911028   -0.1378083343694039 F
   0.0000000000000000   -0.1501421668549955    0.1565298590695831 F
