Cs1 Rb1 Te2 Se2
1.0
   7.4521027121559289    0.0000003152026812   -0.0305575086992960
   0.0000003192325946    5.3188656183606717    0.0000002207480206
  -0.0295999390884621    0.0000001927445159    7.4608505884479133
Cs Rb Te Se
1 1 2 2
direct
   0.1419503975211527    0.7499999953647272    0.2851669049416841 Cs
   0.3995147376551722    0.7500000335476471    0.7894942096941843 Rb
  -0.1128518718395875    0.7500000018225685    0.7543083773765470 Te
   0.0492712952181595    0.2499999688601917    0.8278195886442848 Te
   0.6618664040654787    0.7499999845882243    0.4242029751551681 Se
   0.7081550227292063    0.7500000159828589    0.1074379397454998 Se
