Ba1 Na1 Bi1 As1
1.0
   3.8109909726843836    2.2245310546910484   -0.0000001846859742
   0.8639691201966189    7.7673283632242853   -0.0000014991738594
  -0.0000004469772290   -0.0000022519930625    4.7855309117375162
Ba Na Bi As
1 1 1 1
direct
  -0.2232066265204324    0.6567223459475378   -0.0000001739135170 Ba
   0.3280295801888359    0.1522362260305393    0.5000000230120362 Na
  -0.2320192169844987    0.1929036979168613    0.0000000154342212 Bi
   0.4605293112929771    0.4865048151075745    0.5000001347300135 As
