Ba2 Sr1 Sb1
1.0
   4.3666892003817885    0.5230174970270123   -0.8536913457621458
   0.2445227634832981    6.3400402821820032    1.1950367021992192
  -0.5342185833982118    1.5463081949429485    7.5130037211602865
Ba Sr Sb
2 1 1
direct
   0.4641244191197285    0.3662455722111454    0.5434381579925798 Ba
  -0.2298034585262825    0.6563467575629838   -0.0828500222165024 Ba
  -0.1465318519694248   -0.0099168925505795    0.2820121010859998 Sr
   0.1829068837065473    0.1052935401139927    0.9313707448545561 Sb
