K1 Rb1 Sc1 S2
1.0
   5.3829791554780577    0.1416108705133750    0.0319545641262298
   0.1416108706220790    5.3829792883660339   -0.0319545780023373
   0.0309498528504503   -0.0309498659005445    6.1562316510417636
K Rb Sc S
1 1 1 2
direct
   0.0017324485737172   -0.0017324465398586    0.4264187820252944 K
   0.3166638358551874    0.6833361823153081    0.8068262210406718 Rb
   0.6856978543901224    0.3143021235479112    0.2797799922877245 Sc
  -0.0035996444873754    0.0035996532327978    0.3757062167438168 S
   0.3328385059200494    0.6671614874199788    0.3074377845872699 S
