Sr1 Si2 Rh1
1.0
   6.0000000000000000    0.0000000000000000    0.0000000000000000
   0.0000000000000000    4.4221756930597547    0.0001707884853860
   0.0000000000000000    0.0000760757055461    6.1648547167434025
Sr Si Rh
1 2 1
direct
   0.0000000000000000   -0.0000061495088983    0.8662156129940688 Sr
   0.0000000000000000    0.5000045411009157    0.3078369070942338 Si
   0.0000000000000000   -0.0000003821163509    0.3798059563399039 Si
   0.0000000000000000    0.0000019904196446    0.3445535254054323 Rh
