Cs1 Rb1 Te1 O2
1.0
   5.9579482242378852    0.1623585305378363    0.0817885671375613
   0.1630311846408323    6.6830100460034751   -0.5194167690407372
   0.0818255898629427   -0.5641560318371428    5.1291131540500547
Cs Rb Te O
1 1 1 2
direct
   0.3339902535849584    0.5185972805060367    0.1509128327598780 Cs
  -0.1276583067366680    0.0078366453122181   -0.1150273785521584 Rb
  -0.1601302149317876    0.4596596476620360    0.6008574592477586 Te
   0.1368970660978352    0.2182897522913035    0.4891736272415761 O
   0.0256682000814199    0.0439086785420538    0.3798474735064949 O
