Ba3 Te2 Se1 S2
1.0
   6.0628566983999308   -0.0000000005395045   -0.0000000124580142
  -0.0000000005394880    6.0628566983922862   -0.0000000123795306
  -0.0000000128003632   -0.0000000127209677    6.2920788798483809
Ba Te Se S
3 2 1 2
direct
   0.4999999999447312    0.4999999999241050    0.2167904314054213 Ba
   0.0000000003424571    0.0000000003131029    0.3282805140232108 Ba
  -0.0000000006170613   -0.0000000004664408    0.7377918001999915 Ba
   0.4999999999911270    0.5000000000012149    0.2351421248165165 Te
   0.0000000005566181    0.0000000005082475    0.4749456030735024 Te
   0.0000000002040044    0.0000000001831152    0.0504112523613877 Se
   0.4999999995121054    0.4999999995089653   -0.0626459759859804 S
   0.4999999999657840    0.4999999999673023    0.2641222374009669 S
