Ba1 Na1 Bi1 P1
1.0
   3.3070012369705761   -1.1335793450904419   -0.0000000311321605
  -0.7713085004435005    7.5117590542367232   -0.0000000040237964
  -0.0000000160937880    0.0000000005187677    5.4715565715085877
Ba Na Bi P
1 1 1 1
direct
  -0.0965582213770101    0.6170142019104394   -0.0000000031310678 Ba
   0.2538968025739962    0.1485572135386917    0.4999999970346576 Na
  -0.2635421372491231    0.1066132662639832   -0.0000000005513439 Bi
   0.4395365501310537    0.6161823089549712    0.5000000006868756 P
