Cs1 Rb1 Sc1 S1
1.0
   5.9005637795270252   -0.5027732336172376   -0.7394501590441376
  -0.5027730352433354    5.9005629578451178    0.7394504632374039
  -0.6737877773707821    0.6737883280061850    7.0378569295252458
Cs Rb Sc S
1 1 1 1
direct
  -0.0001824883101138    0.0001825099371613   -0.0969663809107761 Cs
   0.3261411014876257    0.6738588625185902    0.5023755943920255 Rb
   0.7105223206684723    0.2894777700943379    0.2717143401318171 Sc
  -0.0364809363051533    0.0364808579747324    0.4060314465425743 S
