Cs1 Na1 Li2 Bi1 Sb1
1.0
   5.4411061110496224    0.0000000013331564    0.0000000019335768
   0.0000000016335102    6.1393304587165449    0.3453966602284778
   0.0000000023754249    0.3771646547857778    6.8488873549258127
Cs Na Li Bi Sb
1 1 2 1 1
direct
   0.0000000005080052   -0.1756773873137650    0.8216102878044472 Cs
  -0.0000000023079558    0.2309573286022527    0.3008478807445399 Na
   0.0000000013884043    0.2592310600155234    0.2912060899767250 Li
   0.4999999999539345    0.3349193251590832    0.9039499646932561 Li
   0.5000000001716075    0.4787718062991068    0.2976424600523828 Bi
   0.0000000000840829    0.7350818783417998    0.3299163220426795 Sb
