Sr1 Si2 O1
1.0
   6.0000000000000000    0.0000000000000000    0.0000000000000000
   0.0000000000000000    3.9878194629945258   -0.0001221357978346
   0.0000000000000000   -0.0000664868081128    7.5129980222113337
Sr Si O
1 2 1
direct
   0.0000000000000000   -0.0000596838714790   -0.0455461594385640 Sr
   0.0000000000000000    0.4999855948928084    0.2715505002218017 Si
   0.0000000000000000   -0.0000457174006444    0.4411094569907369 Si
   0.0000000000000000    0.0001198056330858    0.6588892039312170 O
