Ba1 Al2 Au1
1.0
   6.0000000000000000    0.0000000000000000    0.0000000000000000
   0.0000000000000000    4.3623401100854426    0.0000004865608470
   0.0000000000000000   -0.0000005441218939    9.1417474742418836
Ba Al Au
1 2 1
direct
   0.0000000000000000    0.0000000782124688    0.9529596629223931 Ba
   0.0000000000000000    0.5000000166812072    0.4128232014939360 Al
   0.0000000000000000    0.0000000292802791    0.5847994184837126 Al
   0.0000000000000000   -0.0000001191882655    0.2859866998177479 Au
