Cs1 Na1 Ca1 F2
1.0
   3.4499757191258063    0.0857480271995500    1.4528008259223744
   0.0633997710513927    4.1630452901282666    0.1940899729872459
   1.1183328895853983    0.3748029512420447   11.2091947592680654
Cs Na Ca F
1 1 1 2
direct
  -0.3287257546282482    0.5022488261269655    0.2482982821893701 Cs
   0.0688735023024196   -0.0448481835627927    0.5458295517156635 Na
   0.2497214289058242    0.4192188718665915   -0.2224973018024300 Ca
   0.2308855363644133    0.4404595693566297    0.5741072180585493 F
  -0.0139617248350701   -0.0246400896753337    0.3543512552898072 F
