Rb2 Na1 Li5
1.0
   6.1004476837880963   -0.0000000027460710   -0.0000000010439625
  -0.0000000026953081    5.9371553843274221   -0.0176646632934182
  -0.0000000010354931   -0.0176869723110961    6.0143725557226944
Rb Na Li
2 1 5
direct
   0.0000000001053864    0.0042307312376315    0.3772537060296881 Rb
  -0.0000000003567425    0.5904406863566884    0.1949484562223738 Rb
   0.0000000000415862    0.4988904577466081    0.3285772099419558 Na
   0.5000000004072975   -0.0552999511385669    0.9770914761922720 Li
   0.0000000000093480    0.2632229586869616    0.2893096389602943 Li
  -0.0000000006078208    0.0869782466626463    0.2220000039269126 Li
  -0.0000000000608024    0.3215948823213501    0.2446215011072263 Li
   0.5000000005056794    0.3546429890281295   -0.0065479909405778 Li
