K1 Li1 Mo1 F2
1.0
   3.6277184104721436    0.1686709815422385   -0.1337861727094130
   0.2922115878444618    7.8404523842247658   -1.4610580629927852
  -0.2099737084902893   -1.3701348376102058    5.8356286332251308
K Li Mo F
1 1 1 2
direct
   0.1129514857735326    0.5477220784950227    0.2328894593515829 K
   0.0519194861612630    0.0724418842549813    0.5799165812033470 Li
   0.0170844216701619    0.0224579892512815    0.0587363127330646 Mo
   0.0839755452552351    0.2288737265109164   -0.1038192570884565 F
  -0.0375179281784267   -0.1282296536334211    0.2897769003519827 F
