Ba3 Se2
1.0
   5.9480386644019756    0.0000000000151473   -0.0000000430616780
   0.0000000000152552    6.0234451508606774   -0.0000000392016683
  -0.0000000420031513   -0.0000000397052763    6.1012565718856022
Ba Se
3 2
direct
  -0.0001546275454227    0.4999999993560361    0.3116168500870135 Ba
  -0.0000258632880511    0.5000000004531820   -0.0713529660923380 Ba
   0.0000002381462396   -0.0000000000438501    0.5021146009963028 Ba
   0.5000001094625952    0.0000000000804424    0.7974577591917987 Se
   0.0001801432296174    0.5000000001722189    0.2563867387814551 Se
