Cs1 Na1 Bi1 Sb1
1.0
   4.4807522636416559   -0.0000000162255926   -0.0000000256467581
  -0.0000000107475927    5.2753904055320788    0.5795738676946669
  -0.0000000174962750    0.8426497583279977    7.8717555776383552
Cs Na Bi Sb
1 1 1 1
direct
   0.0000000011578759   -0.0253598363620297    0.9006830980321782 Cs
   0.0000000008765885    0.1195295135215675    0.3400946069510054 Na
   0.4999999986720891    0.5907635224585488    0.3107775751473613 Bi
   0.0000000006873533    0.5650668021361313    0.5595597138397687 Sb
