Rb1 Li1 Bi2
1.0
   6.0000000000000000    0.0000000000000000    0.0000000000000000
   0.0000000000000000    5.4441886756873377    0.0946838617467666
   0.0000000000000000   -0.0163000456583110    8.2879565035559786
Rb Li Bi
1 1 2
direct
   0.0000000000000000   -0.0668614095228280   -0.0396062792103644 Rb
   0.0000000000000000    0.4136344595233268    0.6242888528031273 Li
   0.0000000000000000    0.4239533349316152    0.2771893156090673 Bi
   0.0000000000000000   -0.0807253838235845    0.4637210988783929 Bi
