Cs1 Na1 Ag1 Te1 Ir1
1.0
   5.9999999999999982    0.0000000000000000    0.0000000000000000
   0.0000000000000000    6.2051019902502791   -0.0610698278783615
   0.0000000000000000   -0.0501807575034515    7.8089032608609346
Cs Na Ag Te Ir
1 1 1 1 1
direct
   0.0000000000000000    0.0466357332328599    0.8537819898868200 Cs
   0.0000000000000000    0.2353813097417451    0.3956362972422490 Na
   0.0000000000000000    0.3781821767420701    0.3185821675654554 Ag
   0.0000000000000000   -0.0409903058945828    0.2866276296139489 Te
   0.0000000000000000   -0.0580619127730112    0.7683519116703978 Ir
