Mg1 Ga1 Cu1 Pd1
1.0
   3.1370841384808408   -0.0411373304010100   -0.0144949567509885
  -0.0411384248058933    3.1370752955416865   -0.0144935166976742
  -0.0094719602220227   -0.0094745668440340    6.1094155451817231
Mg Ga Cu Pd
1 1 1 1
direct
   0.3848903048680847    0.3848902833045399    0.7457440920717439 Mg
   0.3713464385575740    0.3713462449105899    0.2605354620319359 Ga
  -0.1294947373555981   -0.1294945579218094    0.4773875376858822 Cu
  -0.1267420051588579   -0.1267419673516628    0.0163329019659546 Pd
