Cs1 Rb1 Li2 Bi1 Sb1
1.0
   5.5578336665138384    0.0000003598206880    0.0000000303281316
   0.0000003825328186    5.3831421082021800    1.1036619445838196
  -0.0000000310595491    1.0407463697036130    7.4075599749120418
Cs Rb Li Bi Sb
1 1 2 1 1
direct
   0.5000000363577335    0.5570368773615014    0.4510858306528356 Cs
  -0.0000000126472203    0.0776827994994246    0.5984495344499657 Rb
  -0.0000001780607184    0.5253052303006482    0.9919123395887804 Li
   0.4999999093757688    0.1733032809130693    0.0283222666925608 Li
   0.0000000048908583   -0.0312899646365257    0.1103398167898718 Bi
   0.5000002493351329   -0.2632062148935511    0.9159852122963570 Sb
