Rb2 Te1 Se2 S1
1.0
   5.7113323843323043    0.0000066970498432    0.2248498901552176
   0.0000069984431861    5.5299710225876506    0.0000073986243562
   0.2310333439657387    0.0000071814481113    5.7281479726485633
Rb Te Se S
2 1 2 1
direct
   0.4461912716987642    0.2499998163372234    0.3586239909066100 Rb
   0.3492455869134454    0.7499868070477739   -0.0187170160061190 Rb
  -0.0074404177293264    0.7500003387438308    0.5910207883599581 Te
   0.0455532396151160    0.2499972449811095    0.7863514558050027 Se
   0.7571782168110590    0.7500000820192413    0.2117849679702130 Se
   0.3676411082823073    0.7500157077384425   -0.0012661817630951 S
