Ba1 Si1 Pt2
1.0
   6.0000000000000000    0.0000000000000000    0.0000000000000000
   0.0000000000000000    3.9274147819431593   -0.0000003656455256
   0.0000000000000000   -0.0000001800996261    8.4464504313942275
Ba Si Pt
1 1 2
direct
   0.0000000000000000   -0.0000000001215903    0.6764590892216635 Ba
   0.0000000000000000    0.4999999928702620    0.1765632229392258 Si
   0.0000000000000000   -0.0000000185988149    0.0181038234356494 Pt
   0.0000000000000000    0.0000000248263452    0.3351568597070795 Pt
