Ba2 Ge1 P1
1.0
   5.2925805704224400   -0.1318658490831809   -0.2701923371352726
  -0.0931591353015248    6.3648524668647086   -1.1370637037434990
  -0.2299208570525713   -1.0520214237525021    4.4597064620930684
Ba Ge P
2 1 1
direct
  -0.1795075268498139    0.3540438524909899    0.8178518818632691 Ba
   0.3673861507643366    0.8266798892163757    0.5587931060312025 Ba
   0.2519103000571505    0.2395522209883365    0.3028329088595481 Ge
  -0.0558299259525652   -0.0678429731452384    0.0571481010063684 P
