Ba2 Cd1 Sb1 As1
1.0
   5.9391291534770012    0.0000000000403006    0.0000000004827271
   0.0000000000387804    6.4816027821401310   -0.0000000028168936
   0.0000000004187872   -0.0000000029009863    8.0312414539101837
Ba Cd Sb As
2 1 1 1
direct
  -0.0000000000417144    0.0000000005229434    0.4227325790011164 Ba
   0.0000000000496582   -0.0000000005625319    0.5604975129324269 Ba
   0.0000000000403519    0.5000000000356596    0.0495051786775867 Cd
   0.5000000000108419    0.5000000000095162    0.1658064484215471 Sb
  -0.0000000000138081   -0.0000000000156463   -0.0110777213242972 As
