Ba2 Te1 Ir1
1.0
   6.0000000000000000    0.0000000000000000    0.0000000000000000
   0.0000000000000000    6.0000000000000000    0.0000000000000000
   0.0000000000000000    0.0000000000000000    7.7852903536551512
Ba Te Ir
2 1 1
direct
   0.0000000000000000    0.0000000000000000    0.3707875963141359 Ba
   0.0000000000000000    0.0000000000000000   -0.0348856354867759 Ba
   0.0000000000000000    0.0000000000000000    0.3295996687732165 Te
   0.0000000000000000    0.0000000000000000    0.6411883795583523 Ir
