K2 Rh1 O1
1.0
   6.0926310840939699   -0.2565120020687222   -0.0371578004833982
  -0.2545963989517486    6.0768439050827183   -0.3609902353957138
  -0.0331119346591826   -0.4034535738190048   10.2468616264116879
K Rh O
2 1 1
direct
   0.1478964382002904    0.0030100162549273    0.9585641596096026 K
   0.0753616882096141    0.0314697650607430    0.4287496249788415 K
   0.0432064883613080    0.0910421352961849   -0.0070674591519122 Rh
   0.0861923851553326    0.0907340818450612    0.1818946728409422 O
