Ba2 Se1 S3
1.0
   5.9368352591461422    0.1001582797480576    0.3682327746848165
   0.1041976910655438    5.8834796974725974    0.0525303447745508
   0.3538221690276598    0.0452366803242206    5.8030083286918295
Ba Se S
2 1 3
direct
   0.2420778030909443    0.0658688648359694    0.4722089948560574 Ba
   0.5971936810199213    0.5318937858557695   -0.0738586509938308 Ba
  -0.0582938425678427   -0.0182700324116313   -0.0014636705518297 Se
  -0.2743411069213472    0.0326237491794982    0.7137324383585846 S
   0.0805622944706054    0.3244428543201360    0.0270480693886409 S
   0.4135761603004059    0.5634407870029868    0.4457018151805302 S
