Cs2 Li2 Bi1 Sb1
1.0
   5.1253396823987130    0.0000009026027650    0.0000000720972402
   0.0000006508997699    6.8385360359828429   -0.0715143867662307
   0.0000002343256388   -0.0359574408935078    7.7559973703129614
Cs Li Bi Sb
2 2 1 1
direct
  -0.0000000538780814    0.0048995249165702    0.4222568023571894 Cs
   0.4999999926157833    0.5305020048391108    0.6241537507194415 Cs
  -0.0000002070605355   -0.0876274512083541    0.9449599759676298 Li
   0.5000001966066721    0.2369296114970992    0.0889646970989952 Li
   0.4999999359696254    0.7714951258613316    0.1024676101397552 Bi
   0.5000001378758534    0.0299921765075798    0.7957571522917622 Sb
