Cs1 Na1 Sb1 F2
1.0
   7.1643729557658631    0.1040886549043165    1.4298417399266325
  -0.1194524444014229    3.5848850460622361   -0.1634905588745631
   1.1710723357866617   -0.1338413367220029    5.6522866910139555
Cs Na Sb F
1 1 1 2
direct
   0.2496202832138664    0.5359126014088166    0.9603071001426001 Cs
  -0.0712428549261261    0.2052386682886090    0.6081806237093065 Na
   0.6132338149133464   -0.0220082091818539    0.2736529015758245 Sb
   0.0944701036607862    0.7133798314477501    0.6040990707397706 F
  -0.0823803506964684    0.0527991223825721    0.2311532946566291 F
