Ba1 Mn1 N2
1.0
   6.0000000000000000    0.0000000000000000    0.0000000000000000
   0.0000000000000000    4.1212720356958776    0.3060261433391611
   0.0000000000000000    0.4442742116658208    6.3839522918434657
Ba Mn N
1 1 2
direct
   0.0000000000000000    0.5099678137948778    0.5523715538915048 Ba
   0.0000000000000000    0.1180859642941690    0.0436833818432719 Mn
   0.0000000000000000    0.0528386063342605    0.2983591484051560 N
   0.0000000000000000   -0.1060983886798960   -0.1444140872685610 N
