Rb1 Y1 In1 O2
1.0
   5.4712649776736590    0.0302136507856106    0.3096366954258853
   0.0302144141866707    5.4713166302782152   -0.3096468566509265
   0.2879107089349170   -0.2879166663324493    6.5042142725308230
Rb Y In O
1 1 1 2
direct
   0.5026884489741774    0.4973121300130325    0.8026715044020931 Rb
   0.0614455657032407   -0.0614481054461592    0.3697828149176550 Y
   0.0158939108205095   -0.0158921623912602   -0.1177907422274016 In
   0.2109130707921053    0.7890868431697254    0.0915361421409818 O
   0.2090580084752779    0.7909422937254383    0.5986852836911806 O
