Rb1 Te1 Pd1 Se1
1.0
   6.0000000000000000    0.0000000000000000    0.0000000000000000
   0.0000000000000000    4.3997126964199662   -0.0000225629547629
   0.0000000000000000   -0.0000040141955217    8.1410310466215545
Rb Te Pd Se
1 1 1 1
direct
   0.0000000000000000   -0.0000062848739220    0.5045436165403543 Rb
   0.0000000000000000    0.5000011841819775    0.8555906892943955 Te
   0.0000000000000000    0.0000019184700018    1.0305188388653188 Pd
   0.0000000000000000    0.5000031811684464    0.1856008667147249 Se
