Ba2 Zn1 Bi1 As1
1.0
   4.5827026401140385    0.0000001622728915   -0.0000213539128708
   0.0000001622717032    4.5827047462473587   -0.0000000756474026
  -0.0000115302130499   -0.0000003346663165    9.5550886296303581
Ba Zn Bi As
2 1 1 1
direct
  -0.0000001129092005    0.0000002723729640    0.2194002303313219 Ba
   0.4999994507114305    0.4999994728154085    0.7653337276450906 Ba
   0.4999982049126825    0.5000004239821221    1.1022452267276839 Zn
   0.5000012445389519    0.5000003246982992    0.3868069860159877 Bi
   0.0000012138823348   -0.0000004938196311   -0.1224402146171905 As
