K2 Mg1 Bi1 As1
1.0
   4.7970587437405339   -0.0000003853258510    0.0000069830755500
  -0.0000003629885898    5.0777222215595472   -0.0000006967616078
   0.0000043870523190   -0.0000004759888113    8.4570221695645102
K Mg Bi As
2 1 1 1
direct
   0.0000003532083277   -0.0000000016436887    0.2971359316199210 K
   0.0000000511955746    0.5000000182391956    0.6100214569343975 K
  -0.0000007783819403    0.5000000844984646    1.0053692157417575 Mg
   0.5000006949592168    0.4999998581659683    0.2020272964702436 Bi
  -0.0000003201023855    0.0000000386111163    0.8979160917353390 As
