Cs1 Rb1 Sc1 S1
1.0
   5.6834065836787353   -0.1085529013206350    0.0024019137862940
  -0.1085528915271927    5.6834069594842003   -0.0024019650587182
   0.0024216739203928   -0.0024217257240202    5.8596311734878075
Cs Rb Sc S
1 1 1 1
direct
   0.0042190331736129   -0.0042190282508848    0.7377306112142582 Cs
   0.3363223012986944    0.6636775918552461    0.2789823503121451 Rb
   0.6561680097746792    0.3438319658678851    0.2442238806573079 Sc
   0.3366236545456042    0.6633764711754816    0.2693591595862084 S
