Cs1 Rb1 Te1 S1
1.0
   6.0000000000000000    0.0000000000000000    0.0000000000000000
   0.0000000000000000    5.0534280197385328    0.0000000184556153
   0.0000000000000000    0.0000000207946599   11.1117882734403111
Cs Rb Te S
1 1 1 1
direct
   0.0000000000000000    0.0000000034247522    1.1760325646330674 Cs
   0.0000000000000000    0.5000000032131332   -0.2963860876365095 Rb
   0.0000000000000000    0.5000000001203616    0.4059252039215387 Te
   0.0000000000000000    0.0000000000160005    0.4911563034514250 S
