Ba3 Te2 S1
1.0
   6.1633046599851111   -0.0000000001323678   -0.0000000002743763
  -0.0000000001247772    5.8937950034256685   -0.0154020498286285
  -0.0000000002725938   -0.0150754726692067    6.3868040355838609
Ba Te S
3 2 1
direct
   0.4999999999815859    0.4947021984617450    0.2538859816898358 Ba
  -0.0000000006726775    0.4750109010568614    0.8244629097669246 Ba
   0.0000000006127849    0.5186978555107326    0.8338463541948060 Ba
   0.5000000000112310    0.2452245332623587    0.7559688684789733 Te
   0.0000000000532518    0.5083417059812573    0.3446350302238889 Te
   0.0000000000205676   -0.0006361918637807    0.2364938587832631 S
