Cs1 Te2 S1
1.0
   6.0000000000000000    0.0000000000000000    0.0000000000000000
   0.0000000000000000   11.5188194475581867   -0.0000000009774202
   0.0000000000000000    0.0000000004842316    5.6770352090982303
Cs Te S
1 2 1
direct
   0.0000000000000000   -0.0000000002987482    0.1788944854447710 Cs
   0.0000000000000000    0.4999999997724690    0.5086836577044058 Te
   0.0000000000000000    0.4999999998629635    0.0079817937047229 Te
   0.0000000000000000    0.0000000005216572    0.3524960655213639 S
