Ba2 Zn1 As1
1.0
   4.9602078593067844   -0.0000000094868993   -0.0000002287578467
  -0.0000000094869013    4.9602078543196377   -0.0000002300767405
  -0.0000001553426695   -0.0000001564236621    6.8371202947239764
Ba Zn As
2 1 1
direct
   0.0000000026426068    0.0000000039328837    0.1883325644463443 Ba
   0.5000000026311081    0.5000000012523169    0.6712351573782025 Ba
   0.4999999992213652    0.5000000009160106    0.1637703313378739 Zn
  -0.0000000039533465   -0.0000000062209519    0.6785859525801213 As
