Rb2 Sc1 S2
1.0
   5.2751130029424704   -0.6605130069041547   -0.5975332168709658
  -0.6605204822177835    5.2751725897287312    0.5975569248551655
  -0.6349918799222665    0.6350034470419286    6.8451736139146782
Rb Sc S
2 1 2
direct
  -0.0002034099142510    0.0002058335072839    0.0531621668841665 Rb
   0.3381937141162963    0.6618072380139767   -0.3505864334924753 Rb
   0.6830300774031806    0.3169847420772572    0.2987698983007499 Sc
  -0.0806005438845405    0.0805963437630174    0.5707569572796521 S
   0.3929131727269095    0.6070728405958543    0.1622143824154081 S
