K1 Rb1 Sc1 S2
1.0
   5.6981816323143750   -0.0357047055407764   -0.0063866766132595
  -0.0357047063104615    5.6981817300528519    0.0063868494171373
  -0.0066016671279742    0.0066018360329330    5.8543993580208973
K Rb Sc S
1 1 1 2
direct
   0.0101912079403381   -0.0101911951660886    0.7096146044552636 K
   0.3320534984186593    0.6679465302315967    0.2938695166050851 Rb
   0.6204955495732313    0.3795044346098059    0.0644435274200503 Sc
   0.3512053740336822    0.6487946034145289    0.2492767430416048 S
   0.3527203704994438    0.6472796300140701    0.8770396053364028 S
