Rb2 Na2 Bi1 Sb1
1.0
   6.8046133089461840   -0.1020691518239477    0.2368568049059374
  -0.1053834808335843    6.4951637149893031   -0.5291207659310404
   0.2273323193343318   -0.4993524638198590    7.5859256006913274
Rb Na Bi Sb
2 2 1 1
direct
  -0.0235839199031874    0.0062309489182706    0.0782042115531496 Rb
   0.3775561292689111    0.6318970447031278    0.5236734564264846 Rb
   0.3633497286344672    0.6440682197510834    0.5495882715109931 Na
   0.4825269549989272    0.3382539943158050    0.8634373895703552 Na
  -0.0804881678651650    0.0264894391770840    0.2324641383763362 Bi
   0.0473672747888923    0.0035933529205368    0.7065015377313359 Sb
