K2 Mg1 Bi1 As1
1.0
   5.1620381110024098   -0.0000000010055448    0.0000046290223952
  -0.0000000032125517    4.4006216576924002   -0.0000007314792605
   0.0000025859915609   -0.0000004342038939    7.8075708009472544
K Mg Bi As
2 1 1 1
direct
   0.0000007126006743   -0.0000000326452557    0.3821482198405980 K
   0.4999997938531284    0.5000001622064630    0.6865869468997466 K
  -0.0000000815524788    0.5000000646077869    0.9953309297698987 Mg
   0.4999998095249562    0.4999997983698715    0.1676503996382854 Bi
  -0.0000002326229972    0.0000000087283814    0.8110795250133321 As
