Ba3 Te3 S1 O1
1.0
   6.0471976151773168    0.0278786578471135   -0.0464966810395495
   0.0282109053346382    6.0427210712092041    0.0095823906606608
  -0.0472409124317743    0.0099319363097894    6.4808374185627526
Ba Te S O
3 3 1 1
direct
  -0.0293803931180438   -0.0146810019459733    0.7724296806342108 Ba
  -0.0330560558542152    0.4835721242386499    0.4903204740005410 Ba
   0.0127439435996669    0.4873731354424892    0.3545257356899466 Ba
   0.5045965950566978    0.4921470066541372    0.2213042951459939 Te
   0.0111332677340549    0.5257442157792191    0.3001104551933347 Te
   0.0000535093945048    0.4879043634325078   -0.0697059116388518 Te
   0.3668669927830780   -0.0243231896944823    0.4873797381875571 S
   0.3337631414072208    0.7308983474109646    0.5927185356780577 O
