Sr1 Si2 Pt1
1.0
   6.0000000000000000    0.0000000000000000    0.0000000000000000
   0.0000000000000000    5.8930426087542171   -0.0000688171723502
   0.0000000000000000   -0.0000814089408843    5.9981803089802419
Sr Si Pt
1 2 1
direct
   0.0000000000000000    0.5005136952925390    0.1844473197432575 Sr
   0.0000000000000000   -0.0036140100382652    0.3466126332366207 Si
   0.0000000000000000   -0.0003967998859797    0.9510075523950356 Si
   0.0000000000000000    0.0034971147918155    0.2944544864427163 Pt
