Rb2 Sc1 S2
1.0
   5.3084063010941005   -0.6307262351560925    0.5934944347379052
  -0.6307273869978871    5.3084166784644840   -0.5935012742044353
   0.5456265825225851   -0.5456313169607927    6.7663124232446172
Rb Sc S
2 1 2
direct
  -0.0059388939687499    0.0059387887989099    0.5428244107472653 Rb
   0.3395988660539403    0.6604012133824074    0.9545940014798397 Rb
   0.6674232675518001    0.3325767838081742    0.2509711995235581 Sc
  -0.0636163600049833    0.0636162728014478    0.0394380436925145 S
   0.3958661266566830    0.6041339378597090    0.4558023619528005 S
