Cs1 Te2 Pd1
1.0
   6.0000000000000000    0.0000000000000000    0.0000000000000000
   0.0000000000000000    4.4332445923007295    0.0000002258705435
   0.0000000000000000   -0.0000000286614712    9.1609579628441971
Cs Te Pd
1 2 1
direct
   0.0000000000000000   -0.0000000248237172    0.2467126549244448 Cs
   0.0000000000000000    0.5000000510284852    0.5865410402182831 Te
   0.0000000000000000    0.4999999576996144    0.9041438870584849 Te
   0.0000000000000000    0.0000000094056645   -0.2556275866561017 Pd
