Rb1 Li1 Y1 S2
1.0
   5.9999999999999982    0.0000000000000000    0.0000000000000000
   0.0000000000000000    6.8174727024039043    0.0504202642980906
   0.0000000000000000    0.0411764466040257    5.4925810794683922
Rb Li Y S
1 1 1 2
direct
   0.0000000000000000    0.5352704951594230    0.1423089144394332 Rb
   0.0000000000000000    0.2399557563601633   -0.0463827604035970 Li
   0.0000000000000000   -0.0511002803208849    0.4791203237430039 Y
   0.0000000000000000    0.5492264122367078    0.1547562388396992 S
   0.0000000000000000   -0.0833513853235235    0.9614952853896281 S
