Rb2 Mo1 O1
1.0
   5.9869599614267397   -0.0110574456385730   -0.0095093848035470
  -0.0110593907113202    5.9896029205996815    0.0172354929600696
  -0.0093556972530162    0.0169480310278616    6.1254484597063659
Rb Mo O
2 1 1
direct
  -0.0005606326571402    0.0012270701726663   -0.0060017736805963 Rb
   0.3319525321349601    0.7491325630357737    0.5927265424468514 Rb
  -0.0026093385073482    0.0008893667325923    1.0131200655746126 Mo
   0.0016144391952715   -0.0012490000415485    0.3208441668491577 O
