Sr1 Si2 Rh1
1.0
   6.0000000000000000    0.0000000000000000    0.0000000000000000
   0.0000000000000000    6.4258535823091920   -0.1339003532893354
   0.0000000000000000   -0.0888718135951423    4.8976961196569437
Sr Si Rh
1 2 1
direct
   0.0000000000000000    0.6179639754264520    0.0657099208442486 Sr
   0.0000000000000000    0.3511693438309233    0.5512455845137031 Si
   0.0000000000000000    0.0693240615789344    0.8296502992238307 Si
   0.0000000000000000    0.0575086132573980    0.2997812037078976 Rh
