Cs1 Na1 Ag1 Au1
1.0
   6.0000000000000000    0.0000000000000000    0.0000000000000000
   0.0000000000000000    5.2762693360554138   -0.0002127749647715
   0.0000000000000000    0.1049581445071022    9.5883055426147052
Cs Na Ag Au
1 1 1 1
direct
   0.0000000000000000    0.0015783404078257    0.9293086216712190 Cs
   0.0000000000000000    0.4163659676734864    0.4026046855349898 Na
   0.0000000000000000   -0.0872817840819023    0.5594120863687597 Ag
   0.0000000000000000   -0.0806625287668740    0.2766276106859128 Au
