Cs1 K1 Al1 Bi1 As1
1.0
   5.0130422393949470   -0.0000000387183326   -0.0000035148610748
  -0.0000000403650170    4.4203914887438547   -0.0000029046307779
  -0.0000018939942992   -0.0000004108619699    8.3124231763700713
Cs K Al Bi As
1 1 1 1 1
direct
   0.0000000029724768    0.0000002472715146    0.3788049114780321 Cs
   0.4999999695852801    0.4999997604462894    0.7014413373465331 K
  -0.0000002388237827    0.4999998128224851    0.9842857590602102 Al
   0.4999994234315931    0.5000001485553096    0.1411312022266712 Bi
   0.0000008436937901    0.0000000280437575    0.8331167508821925 As
