K2 Mg1 Bi1 As1
1.0
   5.1393091510667777    0.0000000598318873    0.0000089674199490
   0.0000000656410091    4.6760054974190366   -0.0000001415617364
   0.0000062068324094   -0.0000001090917366    7.4659030356021381
K Mg Bi As
2 1 1 1
direct
   0.0000002379551544   -0.0000000068056368    0.3649758982663747 K
   0.4999999126551305    0.4999999711693678    0.6714656915387296 K
  -0.0000021721357089    0.5000000447022217    0.9825449032867639 Mg
   0.5000022594018441    0.4999999457663323    0.1667239190614355 Bi
  -0.0000002371385449    0.0000000466517148    0.8187595792219454 As
