Rb1 Na4 As1
1.0
   4.3975679531474832   -0.2145288547118863   -1.2640997273594712
  -0.1526527881534139    7.0181434766772615   -1.2566477654839823
  -0.8338256371961397   -1.1117614819765109    8.3515034031328028
Rb Na As
1 4 1
direct
  -0.2131378755364259   -0.0621470084453483   -0.1485956519029555 Rb
  -0.1702549721137787    0.3184547220200999    0.5935041276441725 Na
   0.0350605021734793    0.3255058831263770    0.2533361813113156 Na
   0.4114702913792961    0.6054758945826845    1.0568727168449370 Na
   0.0983037126980373   -0.1065853567428456    0.3733824358253813 Na
   0.5025543366254911    0.0455738585687998    0.2165101725685796 As
