Ba1 Cd1 Au1 N1
1.0
   3.9104443864787841    1.0127461517465453    1.9145828161339247
   0.7761123179620932    5.5593828935513887    0.7716185708811152
   1.4644311863796449    0.4720350752138981    6.6607407383915467
Ba Cd Au N
1 1 1 1
direct
   0.0016933351894673    0.0521491078937526    0.0788788111452912 Ba
   0.0076889921653924    0.4796527661128225    0.5506935587764784 Cd
   0.0523905900309586   -0.0653668894844401    0.5819898005461766 Au
   0.2282270888996829    0.1849820057797094    0.2984378344111435 N
