Mg1 Cd1 Ag1 Pd1
1.0
   3.3191255865230378   -0.0130094670074277   -0.0265323976469251
  -0.0130102937168136    3.3191236478419901   -0.0265307229022054
  -0.0105626460210330   -0.0105621782268656    6.5486254798207195
Mg Cd Ag Pd
1 1 1 1
direct
  -0.1290622967521342   -0.1290622825694286    0.4815377484692497 Mg
  -0.1153429824210926   -0.1153426240360944    0.0139285196861756 Cd
   0.3682231760929163    0.3682227996612485    0.7351661269373714 Ag
   0.3761821072875532    0.3761821029054427    0.2693676085668931 Pd
