Rb1 Al2 Te1
1.0
   6.0000000000000000    0.0000000000000000    0.0000000000000000
   0.0000000000000000    4.8374639106408557   -0.0194859352425524
   0.0000000000000000    0.1324556926275445    8.3331292283792990
Rb Al Te
1 2 1
direct
   0.0000000000000000   -0.1854885443763704    0.5349357162082308 Rb
   0.0000000000000000   -0.1850059895209831    1.0608155362730785 Al
   0.0000000000000000    0.3148755897331945    0.1780840411581988 Al
   0.0000000000000000    0.3056189410884481    0.8339676939266532 Te
