Cs2 Rb1 Na2 Li1 Sb1 As1
1.0
   5.0833603267234366   -0.0000110380361890    0.0000003055800534
  -0.0000084502165294    7.7911456169183335    0.3380931661930566
   0.0000004208311983    0.4885399276314535   10.0159303250491991
Cs Rb Na Li Sb As
2 1 2 1 1 1
direct
   0.0000007755772201   -0.2424339023873959    0.3642485930859653 Cs
   0.4999999489391949    0.5521816930848120    0.8189883770790286 Cs
  -0.0000015142134096    0.2507401759841390    0.4361615341796282 Rb
  -0.0000004195986695    0.5709677448751719    1.0693664945618802 Na
   0.0000007912300257    1.0071137392410487    0.9815102710493055 Na
   0.5000009684918633    0.1181607413386232    0.1555687557930231 Li
   0.4999991054680175    0.4492350322195937    0.2177105307056346 Sb
   0.5000003433364837   -0.1826862581021340    0.0896423380055408 As
