Ba3 Se1 S2
1.0
   5.7330952649735751   -0.0947511537356968   -0.1119189357437056
  -0.0947511490177229    5.7330942435999663    0.1119190181112744
  -0.0777732211096660    0.0777733926116804    9.3655842876450794
Ba Se S
3 1 2
direct
   0.0241009159218190   -0.0241009909761678    0.7918082810012346 Ba
   0.3360898793260574    0.6639100309201436    0.1856859635392900 Ba
  -0.0082174822648955    0.0082177527156154    0.3871353761303897 Ba
  -0.0096868215904619    0.0096868484339068    0.0806988680114508 Se
   0.3632232148073632    0.6367766544366424    0.1584976394565868 S
   0.6278232921296598    0.3721767032124340    0.2582338732350473 S
