Na2 Sr1 Si1
1.0
   6.0000000000000000    0.0000000000000000    0.0000000000000000
   0.0000000000000000    6.0282500610637380   -1.2044929466918919
   0.0000000000000000   -1.3025109203155218    7.1387385264977521
Na Sr Si
2 1 1
direct
   0.0000000000000000   -0.0946619978278611    0.3330695815698554 Na
   0.0000000000000000    0.3316513977997277    0.1694205279657373 Na
   0.0000000000000000    0.6012848841972770    0.7496559375487022 Sr
   0.0000000000000000    0.1009307173142055    0.7524919496906036 Si
