Cs1 Na3 As1
1.0
   3.8936507224359787    0.0000001883924097   -0.0000002137908001
   0.0000001096394324    6.7193655930948619    0.1660756394296042
  -0.0000000720648904    0.1380575424039148    7.8403315258560813
Cs Na As
1 3 1
direct
   0.0000000058725616    0.6401286349939757    0.9059997153532323 Cs
   0.0000000114972144    0.3795627178504380    0.5276665256943597 Na
  -0.0000000331651873   -0.0618689971367756    0.5233817984764556 Na
   0.0000000006309730    0.1358430301878064    0.0379961980745968 Na
   0.5000000129418112    0.1463426046370590    0.7508687650887862 As
