Na1 Si2 Ir1
1.0
   3.9314492602898858   -0.0000008297513071   -0.0000016381709483
  -0.0000003680553307    5.6867221487995714    0.9540485527848119
  -0.0000013306455527    1.1651034550135018    4.2647947998980751
Na Si Ir
1 2 1
direct
   0.0000001342614090    0.5680910935922727   -0.1044074418177560 Na
   0.5000000029299582    0.1683596505329967    0.8343792348255243 Si
   0.0000002288015388   -0.0281224937540468    0.1840599497252165 Si
  -0.0000003681098695    0.1446267483199035    0.5742612635444279 Ir
