Cs2 Te1 O1
1.0
   5.6873905806563316   -0.4644564457782713   -0.0624313636027616
  -0.4644565215982955    5.6873923068155756    0.0624313395036977
  -0.0607637162696402    0.0607636180360426    6.3030598911066207
Cs Te O
2 1 1
direct
   0.0311515998578156   -0.0311518405126772    0.6933099644473505 Cs
   0.6858902602977024    0.3141098184299567    0.1908223258647776 Cs
   0.2549718334024913    0.7450283203485332    0.2081203152108394 Te
   0.0279863074515168   -0.0279862982422225    0.1882104021214032 O
