K1 Mg2 Cl2
1.0
   4.6024857333903073    0.9710039420050683   -0.0348593628698360
   0.8536928965415485    8.0432170129540221    0.0128166049822709
  -0.0151350983707697    0.0282849829655662    5.8708279471179861
K Mg Cl
1 2 2
direct
  -0.0455982937882958    0.4213529766831377    0.2602487306642074 K
   0.0729358112778855   -0.0449323989433019    0.0025637071482323 Mg
   0.1524856083342842   -0.0465015500824381    0.5061131585736993 Mg
   0.0166647196476468    0.2498836952358871    0.7613208543938005 Cl
   0.3313451638608945    0.6590602858902045    0.2410595495781541 Cl
