Cs1 Te1 Pb1 S1
1.0
   6.0000000000000000    0.0000000000000000    0.0000000000000000
   0.0000000000000000    6.8101909139938996   -0.0000000000059505
   0.0000000000000000   -0.0000000007714413    8.1556280116358142
Cs Te Pb S
1 1 1 1
direct
   0.0000000000000000    0.0000000004250288    0.3160722569185775 Cs
   0.0000000000000000    0.5000000000288410    0.5379897054283308 Te
   0.0000000000000000    0.4999999999602181   -0.0976624453709741 Pb
   0.0000000000000000    0.5000000000190766    0.2073314828945879 S
