Ca1 Zr1 B1 O1
1.0
   5.9941697052140475    0.0059896621987214   -0.0383489730057021
  -0.0324132771464662    3.0698638938862404    1.8930809864043867
  -0.0276880513747464    1.1364653152484014    8.6217508319319442
Ca Zr B O
1 1 1 1
direct
   0.0186787753604368   -0.1298411488876839    0.0114573543553271 Ca
  -0.0039507162638097    0.1002259536512045    0.5169993029579534 Zr
   0.0031381456869670   -0.0910873038105686    0.3146121980250408 B
   0.0172387965532813    0.6943134954903791    0.8038871514286428 O
