Rb1 Na3 As1
1.0
   4.4765380509471431   -0.0000001119964852   -0.0000000840963145
  -0.0000000947071084    6.8646587795694316   -0.7798060496353451
  -0.0000000697414501   -0.7629803691009429    6.2798481162199549
Rb Na As
1 3 1
direct
  -0.0000000074362628   -0.1111793015378443    0.8690574035776365 Rb
  -0.0000000142303366    0.1411682609551609    0.4319558093063287 Na
  -0.0000000051004185    0.6025488210652513    0.3671637032584081 Na
   0.5000000201466909    0.4456197267265310   -0.0123117162768808 Na
   0.5000000094576544   -0.1464785080671916    0.3148747979602792 As
