Rb1 Y2 S1 O1
1.0
   6.0000000000007327   -0.0000000000000036    0.0000000076229065
   0.0000000000000092    6.0000000000006750    0.0000000222811042
   0.0000000077710928    0.0000000225471313    6.1254966917679887
Rb Y S O
1 2 1 1
direct
   0.3333329999090046    0.6666669997873216    0.6530415656674449 Rb
   0.3333330000119449    0.6666670000581276    0.0200425769560283 Y
   0.3333330000357665    0.6666670000813905    0.3453419567079936 Y
   0.3333330000965080    0.6666670002062235    0.0761949130154890 S
   0.3333329999467770    0.6666669998669534    0.2778169936177756 O
