Cs1 Na1 Cu1 As1
1.0
   4.2811619236568523    0.0747456942772255    0.1304927493576513
   0.1131617539870355    4.5620989097233728    0.1105203972252100
   0.0455409526946519    0.1162394200743442    6.3393173033374461
Cs Na Cu As
1 1 1 1
direct
   0.1059771283862498    0.6781536787954010    0.2281052833651437 Cs
   0.6435871733316563    0.7007587711894396    0.6749828896890793 Na
   0.6085074149732019    0.1880730065407288   -0.0947227065913573 Cu
   0.1182502750048134    0.1830145355014891    0.7539505191311767 As
