Cs1 Rb1 Li2 Bi1 Sb1
1.0
   5.5762622826716051   -0.0000000220978309   -0.0000000353916117
  -0.0000000139489874    5.4126572800563064   -1.5010383982206807
  -0.0000000311317432   -1.2966952345331024    7.5776852070999414
Cs Rb Li Bi Sb
1 1 2 1 1
direct
   0.5000000105376374    0.5456167455049518    0.5532558787746207 Cs
  -0.0000000089995975   -0.0519112789324606    0.4134796474418219 Rb
   0.0000000099917087    0.5169745588777036   -0.0615128337621160 Li
   0.4999999978605853    0.2216107185360239    0.9922703560557736 Li
   0.4999999890950613   -0.2248529942432524    0.0892236494483168 Bi
  -0.0000000003985388    0.0057432335539119    0.9274442689190872 Sb
