Cs1 Li2 Bi2 As1
1.0
   6.0000000000001013    0.0000000000000000    0.0000000000000000
   0.0000000000000000    7.3904744153092228    0.5664842750815265
   0.0000000000000000    0.4535273440761349    7.7952494941023120
Cs Li Bi As
1 2 2 1
direct
   0.0000000000000000   -0.0219288312389257    0.6708779656709096 Cs
   0.0000000000000000    0.2562336791857268    0.0453000473057127 Li
   0.0000000000000000    0.6221688170161890   -0.0100037852194305 Li
   0.0000000000000000    0.4934989361401024    0.3914193200919232 Bi
   0.0000000000000000   -0.1143734377390321    0.2088644441639210 Bi
   0.0000000000000000    0.4511628380077681    0.7332969991772277 As
