Ba2 Cd1 Sb1 As1 F1
1.0
   5.0628400286016646    0.0000002286581118    0.0000016448663251
   0.0000002425072840    4.5877874558605534    0.0000004630698238
   0.0000010997855667    0.0000003047361348    7.9493493048996786
Ba Cd Sb As F
2 1 1 1 1
direct
   0.0000007465678553    0.0000000147344440    0.7041516995472686 Ba
   0.4999999324626088    0.5000000127115297    0.3643292135002125 Ba
  -0.0000000531948248    0.4999999779252403    0.0672636812376900 Cd
   0.5000002818206665    0.5000000023858808    0.8888133209151728 Sb
  -0.0000000588370758   -0.0000000004160580    0.2591773636358179 As
   0.4999991546661254    0.0000000009516264    0.5352997291247410 F
