Cs2 Te1 O1
1.0
   6.0748774370270429   -0.0003348054049785    0.0158121270453206
  -0.0005984586122068    5.9940805216359481    0.0332713506758684
   0.0136767600271075    0.0330764406316140    6.3714337468560034
Cs Te O
2 1 1
direct
   0.0623655252073203    0.7708196634184155    0.8144407137006276 Cs
   0.9684714967132064    0.7276236614988907    0.2470735548862768 Cs
   0.0618034046843630    0.7720026133572702    0.8128093349216277 Te
   0.1931875710255159    0.7478750621003687    0.4970194018436859 O
