Sr1 Cu1 W1 O2
1.0
   5.6725981847562537   -0.0631057184456178    0.2303134375946046
  -0.0729921294263810    6.4182311917458890    0.5096892361223275
   0.2167681425368209    0.4064623888222891    5.7739176817479265
Sr Cu W O
1 1 1 2
direct
   0.0392631927610019    0.5359107304156029    0.3384690752420145 Sr
   0.0483882368736967    0.0464201100319504    0.4234430380485896 Cu
   0.0352489899461673    0.0848523000704471   -0.0789040509107370 W
   0.1143402833029531    0.2332781164554360    0.6268355359370171 O
  -0.0304476970591198   -0.1080222693245669    0.1962624023800645 O
