Ca1 Si1 S1 O1
1.0
   6.0000000000000000    0.0000000000000000    0.0000000000000000
   0.0000000000000000    3.6179784599529099    0.0145306121885540
   0.0000000000000000    0.0172560760200538    5.2690282191554960
Ca Si S O
1 1 1 1
direct
   0.0000000000000000    0.4869219391167821    0.1549906918746067 Ca
   0.0000000000000000    0.5580569196854783    0.1856135264576225 Si
   0.0000000000000000   -0.0136105448861128    0.4866988115620344 S
   0.0000000000000000   -0.0313683105079253    0.9852199660491466 O
