K1 Mg1 Cl2
1.0
   5.5199941648006670   -0.2443658871549022   -0.5713312373471622
  -0.2462589548102300    5.7122894712184440   -0.3961493761241970
  -0.6874819133419374   -0.4186038973282681    6.7959638789282479
K Mg Cl
1 1 2
direct
  -0.1862102419173381    0.3951810307649259    0.8662351160479235 K
   0.1855679652776179   -0.0124268693072925    0.3770140185743097 Mg
   0.2575675955690192    0.2600593950518944    0.6739914631755899 Cl
  -0.0439543063020697   -0.0612975546106465    0.0452454082352224 Cl
