Ba3 Te2 S1
1.0
   5.9396856445474624   -0.0000000027398817   -0.0000000035196572
  -0.0000000026733041    6.1767781575975782   -0.0344193520403744
  -0.0000000036593654   -0.0354199397799534    6.5691070518005539
Ba Te S
3 2 1
direct
  -0.0000000004681345    0.0322824941692389    0.3900556566517578 Ba
   0.5000000011747892   -0.0501430748821288    0.1863655343318820 Ba
  -0.0000000009829268    0.5251913808673516    0.7410092156202720 Ba
   0.5000000000765701    0.1905564892921848    0.6970344390727435 Te
   0.0000000003212169    0.5312062007890719    0.2323168391519085 Te
   0.0000000000779896    0.0162015091006697    0.3747623081547645 S
