Rb2 Sc1 S1
1.0
   5.7545720801894342   -0.5256115138049171    0.7137901809894565
  -0.5256118314058830    5.7545832579974219   -0.7137921021855972
   0.6501142638240419   -0.6501155335402182    6.6484636703085833
Rb Sc S
2 1 1
direct
  -0.0029770665337958    0.0029769701370957   -0.0680777213022659 Rb
   0.6710457071231054    0.3289540824881822    0.5331559463702598 Rb
   0.2945388236794755    0.7054611407868596    0.2793151478869595 Sc
   0.0373925349543516   -0.0373921944760202    0.4363846247930651 S
