Cs1 Rb1 Na2 Bi1 As1
1.0
   5.3156164940610813    0.0000401600077390    0.0000009735596982
   0.0000365352326658    5.8415806491443130   -0.1967860579221174
   0.0000010634311893    0.0201176634148183    9.4510832852598892
Cs Rb Na Bi As
1 1 2 1 1
direct
   0.0000015321720690    0.0136130597932199    0.4013842578713401 Cs
   0.4999988268899100    0.5176319026064795    0.8200453384149099 Rb
   0.0000022553337231    0.0493845860789045    0.9831685183723491 Na
   0.4999964514844073    0.4076020042059285    0.2487058446242485 Na
  -0.0000109052592337    0.5685925178351363    0.1101085719828925 Bi
   0.5000118284075965   -0.1166150446239805    0.1188864607277225 As
