K1 Li2 Bi1 As1
1.0
   4.2721748650941516    0.0001263662746043    0.0003082255817212
   0.0001179017223085    6.6232799547293899   -1.0679284914679930
   0.0002584390958818   -1.0358481923055844    5.4472973409087686
K Li Bi As
1 2 1 1
direct
   0.0000110638545998    0.5455920079799512    0.6437356370170431 K
   0.0000131718769010    0.1085588196183093    0.9132885066138726 Li
   0.0000031228898307    0.1408807261682430    0.9322845780591554 Li
  -0.0000889709878431   -0.0545535603053786    0.3309334096730359 Bi
   0.5000616139258950    0.1540769886111100    0.6824098608175662 As
