Rb2 Te1 S1
1.0
   5.6399864855764648   -0.1482776963519983    0.2105505173934133
  -0.1388015059355152    5.5095044626385832   -0.4756859570558272
   0.1846811353415952   -0.3597272529807537    7.4149123109782415
Rb Te S
2 1 1
direct
  -0.0731555756873636    0.0718405189930160    0.1538475724383716 Rb
   0.4562526777335158    0.5195131979765331    0.6243651184573210 Rb
  -0.0307477284636506   -0.0458175172858134    0.6351055733115868 Te
  -0.0190163713448891    0.6211308037476068    0.3870437342110805 S
