Ca1 Al2 Se1
1.0
   6.0000000000000000    0.0000000000000000    0.0000000000000000
   0.0000000000000000    5.3271909692762911    0.0000001054908796
   0.0000000000000000    0.0000000780367686    6.1535444987001533
Ca Al Se
1 2 1
direct
   0.0000000000000000   -0.0000000328006037    0.5329220167965829 Ca
   0.0000000000000000    0.0000000010823816    0.0215097609278403 Al
   0.0000000000000000    0.5000000282050641    0.8871037565160695 Al
   0.0000000000000000    0.5000000022962564    0.4637204599798414 Se
