Ba1 Si2 Au1
1.0
   6.0000000000000000    0.0000000000000000    0.0000000000000000
   0.0000000000000000    4.2412169519530147    0.0000001782757341
   0.0000000000000000    0.0000001366195275    8.6207998446201906
Ba Si Au
1 2 1
direct
   0.0000000000000000    0.0000001277386972    0.6861649795955002 Ba
   0.0000000000000000    0.5000001404283698    0.1452179385866874 Si
   0.0000000000000000    0.0000000703813129    1.0404936350770910 Si
   0.0000000000000000   -0.0000003421279313    0.3292794619466282 Au
