Ba3 Te2 S1
1.0
   6.2139424801444214   -0.0000055897314860   -0.0000334097260201
  -0.0000008513190071   10.9715664668455570    0.3645507387097965
  -0.0000435756393245    0.3810675660740948    4.4382444783227726
Ba Te S
3 2 1
direct
  -0.0000006060370488    0.2663666405581265    0.7004456100958669 Ba
   0.5000005119201233    0.0248633100265796    0.3192904031117885 Ba
   0.4999969809749250    0.5744676733785420    0.8281147340297605 Ba
   0.5000004841450112    0.2698462680460392    0.7710501343445221 Te
   0.0000024515416679    0.5514305584417328    0.2610724028383371 Te
   0.0000002782498375    0.0583205444106471    0.2802317556825404 S
