Ba2 Zn1 Cd1
1.0
   6.2721769681530528   -0.0000000014434384   -0.0000000012192561
  -0.0000000016900323    7.9255857285043589   -0.1127262450217134
  -0.0000000011108323   -0.1527402845107541    6.3451147793195108
Ba Zn Cd
2 1 1
direct
  -0.0000000000606753    0.6393401501239999    0.2772040476667693 Ba
   0.5000000000081796    0.4102843451371847    0.5148924078950731 Ba
   0.0000000000744260    0.5249992314476476    0.2427261010650595 Zn
  -0.0000000002598221    0.2853922743186598    0.0709244439225996 Cd
