Cs1 K1 Mg1 Bi1 As1
1.0
   6.4167955547111903   -0.0000000113424291   -0.0000000200652967
  -0.0000000105080378    6.8059840266100311   -0.0000000065418104
  -0.0000000199360015   -0.0000000064332705    5.4444418097481773
Cs K Mg Bi As
1 1 1 1 1
direct
   0.4999999995291263    0.4999999992246185    0.5673229096849862 Cs
  -0.0000000000442656   -0.0000000000705915    0.6053244222766343 K
   0.0000000004762174    0.4999999984139926    1.0652663627015735 Mg
   0.4999999993560004   -0.0000000056762191    0.1831338512934226 Bi
   0.4999999997045201    0.0000000072496812    0.6938714512646473 As
