Sr1 Si2 Pt1
1.0
   6.0000000000000000    0.0000000000000000    0.0000000000000000
   0.0000000000000000    4.1241381757823996    0.0000000516436650
   0.0000000000000000    0.0000000275795303    8.6047733514025566
Sr Si Pt
1 2 1
direct
   0.0000000000000000    0.0000000003594500    0.6245461862143795 Sr
   0.0000000000000000    0.5000000025126767    0.3526547095330401 Si
   0.0000000000000000   -0.0000000035736440   -0.0180138872299927 Si
   0.0000000000000000   -0.0000000014615674    0.2500069840153066 Pt
