Ba2 Te1 O1
1.0
   6.0000000000000000    0.0000000000000000    0.0000000000000000
   0.0000000000000000    6.0000000000000444    0.0000000205610700
   0.0000000000000000    0.0000000209035232    6.5046903260943152
Ba Te O
2 1 1
direct
   0.0000000000000000    0.5000000000434718    0.2112184153377810 Ba
   0.0000000000000000    0.4999999998594122    0.2110700788256976 Ba
   0.0000000000000000    0.4999999999745788    0.5587720205917135 Te
   0.0000000000000000    0.5000000001225369    0.8843794906813791 O
