Cs1 Rb1 Sc2 S2 O2
1.0
   5.8684960793296854   -0.1113018117576901    0.1028219117363975
  -0.1113018070588221    5.8684962961614362   -0.1028218247264002
   0.0914397569307202   -0.0914396735093085    6.8232768702265147
Cs Rb Sc S O
1 1 2 2 2
direct
   0.0845606902821737   -0.0845607230020948    0.7392102827266461 Cs
   0.2568190986152043    0.7431808982683530    0.2463734124343224 Rb
   0.7100078363006288    0.2899921712735767    0.0366877607924847 Sc
   0.6577580713312191    0.3422419294670824    0.5208657357534564 Sc
   0.4674104746634883    0.5325895814742350    0.8402871463302052 S
  -0.1241471215605034    0.1241471109227160    0.2879863560433789 S
   0.4235255315453749    0.5764744505751666    0.5696141820017709 O
  -0.1426015790262277    0.1426015778194302    0.2847011340009070 O
