Cs1 Te2 S1
1.0
   6.0000000000000000    0.0000000000000000    0.0000000000000000
   0.0000000000000000    7.4661509571168949    0.4281734298235971
   0.0000000000000000    0.3996202109936208    5.8033328980857473
Cs Te S
1 2 1
direct
   0.0000000000000000   -0.1284441967757116   -0.1137159847965136 Cs
   0.0000000000000000    0.3604881213727607    0.0289923376147291 Te
   0.0000000000000000    0.4178757617288111    0.5131929726000201 Te
   0.0000000000000000    0.1090643030896579    0.3610486703031310 S
