Rb1 Na1 Ca1 F2
1.0
   3.3780297089031013    1.3644905083918211   -1.0664798750179654
   0.8902092759754907    8.3082855003909106   -0.5533191564445774
  -0.5471470922596970   -0.4242340313626323    8.3303623044010298
Rb Na Ca F
1 1 1 2
direct
  -0.0470109268655422    0.5548159679678680    0.1871755345307341 Rb
  -0.0146375968617455    0.0535680419114518    0.4056508978511071 Na
   0.1598357742670362    0.0429677543504071    0.0165097257901790 Ca
   0.2209194815665844    0.1862792145132064    0.2606242415104476 F
  -0.0947847388692784   -0.0943649785362663    0.1306275756936034 F
