Ba1 Li1 Re1 O2
1.0
   4.5590941547694745   -0.0644169913331986   -0.1819506502330159
  -0.0722932832705523    5.2733481256778987    0.1752091229665123
  -0.2107646222408963    0.1657581975050680    5.5148494148509997
Ba Li Re O
1 1 1 2
direct
  -0.2602901724665627    0.5092003639152148    0.0891345725532222 Ba
   0.0851120129157985   -0.0298755548933732    0.6082368044224713 Li
   0.1981827574865835   -0.0303321212839892    0.0926794539168420 Re
   0.2591100089803050    0.7219621743928056   -0.1173726163282532 O
  -0.0569085923142052    0.0846611547511855    0.2993137747339386 O
