Sr1 Si2 Rh1
1.0
   6.0000000000000000    0.0000000000000000    0.0000000000000000
   0.0000000000000000    4.2067019014848430    0.0000006627346796
   0.0000000000000000    0.0000002047976204    6.8378864224976095
Sr Si Rh
1 2 1
direct
   0.0000000000000000    0.5000001619916716   -0.2116509289646974 Sr
   0.0000000000000000    0.4999998423651372    0.3055051362554883 Si
   0.0000000000000000    0.0000000672923272    1.1318414381231552 Si
   0.0000000000000000   -0.0000000627438452    0.4753403666050292 Rh
