Cs1 Rb1 Na1 Sc1 O1
1.0
   5.8153912868935329   -0.2385426016342465    0.0455548072678123
  -0.2385426010832001    5.8153916754971036   -0.0455549603537281
   0.0449112002525591   -0.0449113483988927    5.9644788780143703
Cs Rb Na Sc O
1 1 1 1 1
direct
  -0.0249172246789394    0.0249172284610931   -0.0265212962630546 Cs
   0.3367221365738504    0.6632778788075553    0.4826186049412198 Rb
   0.3650663386252220    0.6349336261318360   -0.0487132472032939 Na
   0.6124641944713691    0.3875358339635486    0.3414519387496786 Sc
   0.3773305552405934    0.6226694340229939    0.4036389971437295 O
