Cs1 Rb1 Li2 Bi1 Sb1
1.0
   5.3448760531672486    0.0001712756772549   -0.0000539585290054
   0.0001491331343917    5.9791780577371636    0.1297515394179524
  -0.0000517969713553    0.1459504443805883    6.1806156613214798
Cs Rb Li Bi Sb
1 1 2 1 1
direct
  -0.0000166001507394   -0.0410873647191371    0.5823815681209142 Cs
   0.4999959986636339    0.4886301863513868    0.5675489604305728 Rb
   0.0001312034524315    0.1502705923398282    1.0621048203215291 Li
   0.5000050132580766    0.4519421534520525    0.0750896542385754 Li
   0.4999374778444661   -0.0333867654940257    0.1063310111248173 Bi
   0.4999469059060228   -0.0290878007570029    0.1030089688427442 Sb
