Cs1 Rb1 Cd1 Te1 S1
1.0
   4.6284145260569165    0.7568175164389056    0.2866808198048977
   0.5720753357366291    6.7605977000181046    0.4528425417153564
   0.2445048800157721    0.4268926258689294    6.8959597546274454
Cs Rb Cd Te S
1 1 1 1 1
direct
  -0.2006870075714114    0.0833575932135313    0.1676816056451695 Cs
   0.4103940165820799    0.6814221069113408    0.7255735914990236 Rb
   0.0225934602358169    0.5175944990747378    0.3217388754326262 Cd
   0.0128733776733837    0.2322361250993528    0.6390326059573692 Te
   0.4775281620832428    0.6520566863343259    0.2107393173816758 S
