Ba1 Li1 Re1 O2
1.0
   4.5409891335171402    0.0134890346798171   -0.2241495357337546
  -0.0063967151210695    5.3252550780671832    0.1375909517978441
  -0.2451946506481210    0.1274743899615116    5.4758382293185530
Ba Li Re O
1 1 1 2
direct
  -0.2447433964789756    0.5168297640915188    0.0980954535138052 Ba
   0.0602690482598756   -0.0316296979850506    0.6113805821180329 Li
   0.2078640197449095   -0.0301056146724962    0.0920159967751998 Re
   0.2552072500214959    0.7122426296038618   -0.1147059959766573 O
  -0.0533909266395404    0.0883459122840823    0.2951959630562946 O
