Cs1 Na1 Bi1 F1
1.0
   3.0728013289056824   -1.5626129196196219    0.3026164448930976
  -1.1635934893783000    5.5033527396775579   -0.2504726808747748
   0.0896989907871659   -0.2472350258777805    8.7015322370678803
Cs Na Bi F
1 1 1 1
direct
   0.1111084099374050    0.5562035674906610    0.1920810871602196 Cs
  -0.0312919433111481    0.0644186080136033    0.8419234565380985 Na
   0.0142416523301379    0.5557926392024128   -0.3595836660972697 Bi
   0.1348049133245321    0.0522391607224583    0.0755790893056443 F
