Na2 Bi1 As1
1.0
   6.0000000000000000    0.0000000000000000    0.0000000000000000
   0.0000000000000000    5.7335854871113128    0.0000000016185844
   0.0000000000000000    0.0000000009323745    8.4955111194411810
Na Bi As
2 1 1
direct
   0.0000000000000000    0.0000000000771459    0.6533859815802380 Na
   0.0000000000000000    0.4999999999259231    0.2100875009172481 Na
   0.0000000000000000   -0.0000000000376236    0.0223829830119622 Bi
   0.0000000000000000    0.0000000000058702    0.3213065229767325 As
