Ba1 Na1 Bi1 As1
1.0
   6.3061789643314805    0.2404004149871902    0.0000000826064060
   0.2057821224220829    5.4003968647378109   -0.0000007425570631
   0.0000000648207396   -0.0000009005754528    5.5466971527419773
Ba Na Bi As
1 1 1 1
direct
  -0.2732643788948011    0.7181730578870656   -0.0000000522803085 Ba
   0.2369065842659218   -0.0967997389043161    0.5000000205994608 Na
   0.1357568566225567    0.1912425832168386    0.0000000831828516 Bi
   0.2339339346898085    0.6759611169417972   -0.0000000506638747 As
