Cs1 Au2 Br2
1.0
   6.0057379744141466    0.0446325190262238   -0.2445015521823163
   0.0518407201523021    7.0591009544352605   -0.1379871613628197
  -0.2122035374917187   -0.1112814764130505    7.8008058497819199
Cs Au Br
1 2 2
direct
  -0.0210504368628609    0.4881294935576284    0.2604083063181294 Cs
   0.0007041683828226    0.0045834317989964   -0.0525943009859750 Au
   0.0000001111438798    0.0001849898444334    0.6100856347466006 Au
   0.2905709737268648    0.2473836109981953   -0.0779105833261123 Br
  -0.0416728176382973   -0.0117295334043333    0.2955889291527982 Br
