Rb1 Au2 Cl2
1.0
   6.0367597157279516   -0.1526102469535496   -0.1057943661598826
  -0.1267407156765274    6.4425497298200591   -0.2757947553773885
  -0.0991218055906142   -0.2807035475299479    6.5768726730321099
Rb Au Cl
1 2 2
direct
   0.2640429493047998    0.4998281432916337    0.2380864599227031 Rb
  -0.0283567643171190   -0.0879106310187964   -0.0370530824151357 Au
  -0.0798447525655835    0.5719189670297621    0.7115190899583238 Au
  -0.0117669247065767    0.2539886077566697   -0.1646205616686469 Cl
   0.1579104854398039   -0.0021430876778691    0.2808280974989021 Cl
