Ba2 Cd2 S2
1.0
   6.5951736183078857   -0.0000000099041719    0.0000000125251458
  -0.0000000107766745    5.5788173820647016   -0.0019118507784977
   0.0000000151911942   -0.0019844033548101    5.7452925843654130
Ba Cd S
2 2 2
direct
  -0.0000000020191109    0.0000104535493105    0.3676251312073960 Ba
   0.5000000002243956   -0.0006361586668143    0.6004973388823250 Ba
  -0.0000000007307851   -0.0003762930269660   -0.1209043126176422 Cd
   0.5000000007392762    0.5014324490661908    1.0436681031588018 Cd
   0.5000000020817970    0.4999709084529432    0.0066940369513255 S
   0.4999999999096631    0.4995986383978816    0.4348787073717241 S
