Cs1 Na1 Sc1 S1
1.0
   4.8262579810205324   -0.0000000043505709   -0.0000000115233796
  -0.0000000029185110    7.0360827500797960   -0.0000000021341236
  -0.0000000094362019   -0.0000000027235381    5.4300977802781878
Cs Na Sc S
1 1 1 1
direct
  -0.0000000008062651    0.5000000021737881    0.1236057500640411 Cs
  -0.0000000003999614   -0.0000000001896148    0.6556894161871490 Na
   0.5000000003130930    0.0000000000966622    0.2031448889183163 Sc
  -0.0000000001789123   -0.0000000002015410    0.1485879435519700 S
