Cs1 Na1 Mg1 Bi2
1.0
   5.5124398424284351    0.0000000134943297    0.0000000319789494
   0.0000000101160468    7.7936276982529975    0.2430654976211670
   0.0000000220041079    0.2232359205285253    6.0720368509170433
Cs Na Mg Bi
1 1 1 2
direct
  -0.0000000005666633   -0.0211503467456959    0.4141461953599088 Cs
   0.4999999936906082    0.4996524027463701    0.6595749045388781 Na
   0.0000000052318982    0.4474314043713949    0.9578902013099575 Mg
   0.4999999871386084    0.3508787748024600    0.1695078932561831 Bi
   0.0000000127864268    0.4731877623958988    0.4327848061496463 Bi
