Ba2 Si1 O1
1.0
   3.9257879450924977    0.0801469629493327   -0.2429748921838293
   0.0407230930822430    5.8860938571319412    0.2108981687549140
  -0.2853787578622036    0.1363811403421100    5.8231180185141813
Ba Si O
2 1 1
direct
  -0.1069420948480743    0.2468151687940456    0.9938998481143864 Ba
   0.0436970235282173    0.7755763821793475    0.4731287479085640 Ba
   0.4618847838572918    0.7494918157993190    0.9988441278517498 Si
   0.4312902990421191   -0.0218833621934232    0.1708042773980620 O
