Ba2 Te1 S2
1.0
   5.6193992654899017    0.0768856113376449   -0.0933842828671759
   0.0095353412429467    6.4281867203099639   -0.0707024020689369
  -0.1546097009258087   -0.1179026212016508    5.4503219917934747
Ba Te S
2 1 2
direct
  -0.0262349425295161    0.0549449383506581    0.6159206566609914 Ba
   0.2846977215063222    0.5366230151967100    0.1096776125262956 Ba
  -0.2956876987050388    0.5777618444497807    0.6524926006607896 Te
   0.2430745667135522    0.0221157425563072    0.1228093202998788 S
   0.7948363319981158    0.3988574418697758    0.2638887751793452 S
