Ca1 Cd1 S1 O1
1.0
   4.1682127349038174   -0.3151834079592007   -0.1860247964740888
  -0.3151833250743497    4.1682128896942583    0.1860252977522175
  -0.1716389983415497    0.1716394799863390    4.6813954341387767
Ca Cd S O
1 1 1 1
direct
  -0.0288028449859460    0.0288029617992313    0.3345314492605399 Ca
   0.3608711285386733    0.6391303970330090    0.1476622896873996 Cd
   0.3392572232768538    0.6607410618463110    0.1184182413779186 S
  -0.0046595087847542    0.0046595757371629    0.3215170068917912 O
