Rb1 Li2 Bi1 As1
1.0
   4.7760087537088491   -0.0000000130856169   -0.0000000163693274
  -0.0000000128472693    6.4527197215168943    1.1904256150498913
  -0.0000000179433530    1.3744745898049739    6.6539350204524563
Rb Li Bi As
1 2 1 1
direct
  -0.0000000003947369    0.5694095688811078   -0.0882425047433725 Rb
  -0.0000000015607275    0.2480110769628503    0.4986363964618681 Li
   0.5000000012879492    0.0312462357896440    0.0288316494255888 Li
   0.0000000033942213   -0.1150974173646174    0.3154549450833758 Bi
  -0.0000000052624611    0.0745055371087467    0.9023525044393685 As
