Rb1 Y1 Sc1 S2
1.0
   3.5952886272478519    0.2060272144296317   -1.1842522353118277
   0.2060306816882579    3.5952891285197621    1.1842513936331667
  -0.8406648077751501    0.8406660949224595   11.0698055286130455
Rb Y Sc S
1 1 1 2
direct
   0.5535152288378012    0.4464843876157540    0.7510679730527253 Rb
  -0.0225444870427719    0.0225446510540505    0.1343397175847970 Y
  -0.2579826614484709    0.2579830813834538    0.3671725652109549 Sc
   0.4133900329193652    0.5866092883148567    0.0781174294739042 S
   0.3136208675805413    0.6863796001226264    0.4232813351126906 S
