K1 Rb2 Na1 Bi1
1.0
   5.4241575544802583   -1.2069184455579482   -0.0399403413946336
  -1.3766853632889653    6.4145536193300572   -0.0459235587355959
  -0.0028329286060327   -0.0376309352302121    8.0928209799376276
K Rb Na Bi
1 2 1 1
direct
  -0.0074930355502979    0.0522843010165040    0.1977874902576265 K
   0.3056078195146176    0.6509041660618390    0.9041463709380313 Rb
   0.2941925602397327    0.6353133288629672    0.4672794644203284 Rb
   0.5961761372456341    0.2430117775088823    0.6636868394313501 Na
  -0.0218174755335874    0.0018204376532881    0.6882648563911122 Bi
