Ba1 Si2 Rh1
1.0
   6.0000000000000000    0.0000000000000000    0.0000000000000000
   0.0000000000000000    4.1463796503001671    0.0000003273852668
   0.0000000000000000    0.0000001798166432    8.2061809915143549
Ba Si Rh
1 2 1
direct
   0.0000000000000000   -0.0000000175514416    0.6470364382642021 Ba
   0.0000000000000000    0.5000000273374965    0.1932865542044082 Si
   0.0000000000000000    0.0000000206791250    1.0319331739892972 Si
   0.0000000000000000   -0.0000000326055599    0.3240078513296172 Rh
