Cs2 Rb1 Mo1
1.0
   6.8598887436828218    0.0000000001296179    0.0000000045933624
   0.0000000001216292    6.4596274337317769    0.0000000016294604
   0.0000000046213817    0.0000000015919393    6.2337774646820918
Cs Rb Mo
2 1 1
direct
   0.0000000012718045    0.0000000008801520    0.6221037159676308 Cs
   0.4999999998477236    0.5000000002211278    0.4810714218776531 Cs
   0.0000000001579622    0.5000000006905904    0.0503464294488315 Rb
   0.5000000000196623   -0.0000000001748378    0.9860864335815941 Mo
