K1 Rb1 Mg1 Bi1 As1
1.0
   6.4714856313911033    0.0000000524605365   -0.0003451677152293
   0.0000000528807616    6.2995929419505847   -0.0000000168924113
  -0.0004504355633214   -0.0000000121360504    5.0322589416006309
K Rb Mg Bi As
1 1 1 1 1
direct
   0.0002208520852063    0.0000000004130585    0.5971713494143658 K
   0.5006229795535682    0.4999999962685537    0.5988581213211235 Rb
  -0.0029555917397927    0.5000000009484254    1.1057416340926882 Mg
   0.5011644884757160    0.0000000045803603    0.0915957146441199 Bi
   0.0009472797296225    0.4999999967244299    0.6071281823431104 As
