Cs1 K1 Ca1 F2
1.0
   3.7987587762971016    0.3736285201628428   -1.0832450322394600
   0.1660986597248519    7.6373565916852142   -0.6371125649931573
  -0.7497446105292662   -0.4070280972959112   10.0987944342657876
Cs K Ca F
1 1 1 2
direct
  -0.2455360759896485    0.5347802920040261    0.1720914944205867 Cs
   0.0058716693996039    0.1127796484257329    0.4022194487396078 K
   0.2476734598761151    0.0084216483913556    0.0541658195704528 Ca
   0.3358118304630641    0.2231977951490012    0.2282830784323022 F
  -0.1370278868617388   -0.0867403569771898    0.1433291519783095 F
