K2 Na1 Ag1 Bi1 Sb1
1.0
   5.2427753362483216   -0.5748437127069483    0.2190793958634646
  -0.4649254614691178    6.6435648652622685    0.4112186458097473
   0.2979201839295096    0.3877123004298649    7.5014694132551440
K Na Ag Bi Sb
2 1 1 1 1
direct
   0.0263535039207387    0.6417971095281302    0.8016950094129031 K
   0.2632654506762604    0.2318121122653989    0.5171771616474145 K
   0.4093837791165906   -0.1980276806590582    0.1666062918799580 Na
  -0.0785243727603773    0.1240842549676207    0.0876377704817734 Ag
   0.4544506406613524    0.3032342378891437    0.0281150276886068 Bi
   0.6618839948301690    0.0314689536618257    0.7952807297498299 Sb
