Ba1 Na1 Bi1 As1
1.0
   3.8109751523166771    2.2245134924148617    0.0000006299493908
   0.8639082780620377    7.7671579008405072   -0.0000014604472379
   0.0000002640351866   -0.0000016842059817    4.7856691623250294
Ba Na Bi As
1 1 1 1
direct
  -0.2232192595827511    0.6567793958496781   -0.0000000515444841 Ba
   0.3280355729437109    0.1522938869113548    0.5000000726338703 Na
  -0.2320029990848647    0.1929576494730874    0.0000003407021190 Bi
   0.4605195896233183    0.4865630249873131    0.4999996343615390 As
