K1 Na1 Ag1 P1 O1
1.0
   4.9901442559856868   -0.4852610599567335    1.0317648569983078
  -0.4055362116078414    5.2754385279337956   -0.6946876152282195
   0.8321980593179209   -0.6496706780044372    6.7821876596589314
K Na Ag P O
1 1 1 1 1
direct
   0.2382793346201252    0.5733889313772231    0.5975475102853870 K
   0.6033115945723367    0.8065422600394436    0.1011911281582917 Na
   0.3711129452949562    0.2104325154793175    0.9673676362005543 Ag
   0.0716222697851304    0.0356016221194103    0.2649790428786444 P
   0.1782088551484737    0.8740346777982826    0.3808456594487802 O
