Sr1 Si2 Rh1
1.0
   6.0000000000000000    0.0000000000000000    0.0000000000000000
   0.0000000000000000    4.0216820065721919    0.0000042879120841
   0.0000000000000000    0.0000033843073032    8.1485753016884175
Sr Si Rh
1 2 1
direct
   0.0000000000000000    0.0000004370310678    0.6540839194758148 Sr
   0.0000000000000000    0.4999998067218584    0.1863777859174906 Si
   0.0000000000000000    0.0000000450797596    1.0258112357435765 Si
   0.0000000000000000   -0.0000002897187780    0.3267770567749260 Rh
