Ba1 Zn1 Mo1 O2
1.0
   4.6083739611947099    0.3109171299315006    0.1511926201039906
   0.3612158072571764    6.6748790410119279   -0.2802976787171666
   0.1181979108790589   -0.3005084350138105    4.7901428493337717
Ba Zn Mo O
1 1 1 2
direct
   0.0917890659687279    0.4880961818649715    0.1234784040114343 Ba
  -0.2229504682017942   -0.0097465433818565   -0.0125055664370494 Zn
   0.1600913919276186    0.0609452101134283    0.5276546059575885 Mo
   0.1613404679859799    0.3408682795862243    0.5997203719139463 O
   0.0424975333329107   -0.1368941460563304    0.2736521734991147 O
