Sr1 Si2 Rh1
1.0
   6.0000000000000000    0.0000000000000000    0.0000000000000000
   0.0000000000000000    5.0195083107334595    0.0009963337390714
   0.0000000000000000    0.0009548497605214    5.4517165045772220
Sr Si Rh
1 2 1
direct
   0.0000000000000000   -0.0004495024163404    0.3190262970268057 Sr
   0.0000000000000000    0.4999393812223581    0.7194754815573094 Si
   0.0000000000000000    0.0001246554320772    0.8703334856891943 Si
   0.0000000000000000    0.0003854673249775    0.3440407271019802 Rh
