Ti1 Be1 Al1 Cu1
1.0
   2.8025332942900159    0.0007624386706543    0.0048433261411318
   0.0007603744755458    2.8025359554732545    0.0048428800465034
  -0.0147023232217016   -0.0147019940611276    6.6762838653148453
Ti Be Al Cu
1 1 1 1
direct
  -0.1252827471672985   -0.1252826563549499    0.4828749239589100 Ti
   0.3790458412356029    0.3790459529652763    0.2397072968129445 Be
  -0.1274035842429154   -0.1274036595673814    0.0133107295455814 Al
   0.3736405041663606    0.3736403700683786    0.7641070289269781 Cu
