Cs1 Na1 Rh1 F1
1.0
   4.5652999786628472    0.1037174874422161   -0.0548889803186896
   0.1037175361483563    4.5653002456726899   -0.0548884386974358
  -0.0118372834741463   -0.0118363107039486    6.6319387730376596
Cs Na Rh F
1 1 1 1
direct
   0.4292605002665659    0.4292605618311827    0.3757162555209966 Cs
  -0.1067750149268394   -0.1067747630162161   -0.0903970177773618 Na
  -0.0807072112795779   -0.0807071090052395    0.5117532778790705 Rh
   0.0082217280183899    0.0082213137693014    0.2179004903424305 F
