Rb1 Li1 Bi1 Sb1 Au2
1.0
   6.7598563121387869   -0.0000000113319520   -0.0000000235890698
  -0.0000000093889985    6.2435437415189412    0.0000000034644591
  -0.0000000250801490    0.0000000014746675    7.6080358607488954
Rb Li Bi Sb Au
1 1 1 1 2
direct
  -0.0000000008841130    0.0000000078906431    0.0602873666408059 Rb
   0.0000000027551730    0.4999999999745857    0.8649717648870351 Li
   0.4999999912876276   -0.0000000132055100    0.1821159673873258 Bi
   0.4999999997465384   -0.0000000029162472    0.8322278660834037 Sb
   0.0000000054980916    0.5000000092285650    0.5457761293765545 Au
   0.0000000024418426    0.4999999998947554    0.1933829168508792 Au
