K2 Sc1 S2
1.0
   6.0116044365268140   -0.1113406404320234   -0.1764883172179768
  -0.1113406429248029    6.0116035493521238    0.1764880165909209
  -0.1632018897026855    0.1632016022977335    6.0390529270029907
K Sc S
2 1 2
direct
   0.6839082130781754    0.3160919923681937    0.1977854832504210 K
   0.2768235974495226    0.7231764247287136    0.6614352193711452 K
   0.6918963960046274    0.3081036462558018    0.2404359036601308 Sc
  -0.0378477703557688    0.0378475921016474    0.3863751227682160 S
   0.3852195624738837    0.6147803434495308    0.1723232720796742 S
