K1 Li4 As1
1.0
   4.4191398360549119    0.2566185388271136   -0.7601768728171834
   0.1579219682598496    4.9016086368822389    0.2250375157300215
  -0.4843157373471927    0.1754356561673862    7.3046258467904011
K Li As
1 4 1
direct
   0.1462311269692157    0.7251709197774125    0.6382966791336044 K
  -0.0189657127937200    0.6294550579819282    0.1575989675873581 Li
   0.5154757130548673    0.2961360843201692    0.3891725054377474 Li
   0.7772396956827705    0.2152373888733740    0.9148063238554117 Li
   0.4356222607479383   -0.0534497902085571    0.1311142301899155 Li
  -0.0222700842445354    0.1300193351821598    0.2536792654413427 As
