Na1 Sr1 Zn1 Cd1
1.0
   6.0000000000000000    0.0000000000000000    0.0000000000000000
   0.0000000000000000    6.5105447047361888    0.8845188629503213
   0.0000000000000000    0.7880752661975430    6.4181241520151247
Na Sr Zn Cd
1 1 1 1
direct
   0.0000000000000000   -0.0228159426314782    0.6197838775377162 Na
   0.0000000000000000    0.5611436439255344    0.2414930740296098 Sr
   0.0000000000000000    0.4610542843559711    0.7616898597383540 Zn
   0.0000000000000000    0.0985830142231642    0.0758071876319655 Cd
