Ba2 Cd1 Sb1 As1 F1
1.0
   4.9309654408928614   -0.0000003466913485    0.0000015875023602
  -0.0000003654874686    4.6732407588286646   -0.0000008160817255
   0.0000010507229009   -0.0000005090676844    8.0584513004626768
Ba Cd Sb As F
2 1 1 1 1
direct
  -0.0000000027547525   -0.0000000203439590    0.6026546128326866 Ba
   0.4999998664051130    0.4999998751370239    0.2646942796331402 Ba
   0.0000002464907533    0.5000001017908396   -0.0403645414959358 Cd
   0.4999996085340379    0.5000000435723594    0.7780822920562197 Sb
  -0.0000001055769354    0.0000000342722946    0.1439729253401275 As
   0.0000003826839824    0.4999999653903358    0.4465764670384490 F
