Rb1 Al1 F2
1.0
   4.4906353359943463    0.1215883139318480    0.1604511738113725
   0.1215628506501504    4.4810716454523076    0.1700388610181338
   0.0319069488598526    0.0368040069375679    5.6687062932313381
Rb Al F
1 1 2
direct
   0.3468011114469339    0.3468773975334875    0.4920391043308910 Rb
  -0.1629477146956231   -0.1615063897700569    0.0455279701920869 Al
   0.0801245078935212    0.0806119654633601   -0.1204938010945256 F
  -0.0494949165647133   -0.0511199838861088    0.3318477102078315 F
