K1 Li1 Mo1 F2
1.0
   5.7189782796384776   -0.5231653585707237   -0.4509455279668435
  -0.7333564136851030    3.6131156748229865    0.0971991934383409
  -0.4600295158347621   -0.1428283979783220    6.3140006929885786
K Li Mo F
1 1 1 2
direct
   0.2662834006850255    0.5344582865414589    0.4732834046383195 K
   0.0007260641683047   -0.1034917383490567   -0.0507035118116183 Li
   0.5642944520068378    0.1856696318201641    0.0064270818437157 Mo
   0.2546512941884810    0.0434132519668868    0.1880677873812301 F
   0.2087488209261522    0.9990945610534813    0.7501802236003817 F
