Ba1 Si2 Au1
1.0
   6.0000000000000000    0.0000000000000000    0.0000000000000000
   0.0000000000000000    4.6220217093883020   -0.0000000154540264
   0.0000000000000000   -0.0000000084525714    8.6048578763896320
Ba Si Au
1 2 1
direct
   0.0000000000000000    0.0000000004950225    1.0375098102688587 Ba
   0.0000000000000000    0.5000000026024852    0.3402736886929847 Si
   0.0000000000000000   -0.0000000006633862    0.6694928843692350 Si
   0.0000000000000000   -0.0000000020210884    0.3932596019650149 Au
