Cs2 Li2 Bi1 Sb1
1.0
   5.1809237465063731    0.0000000367715882    0.0000000198392720
   0.0000000276090083    7.2942078190590536    0.1064964746674226
   0.0000000156094064    0.1078721694363551    6.5033302917089149
Cs Li Bi Sb
2 2 1 1
direct
   0.4999999974138243    0.5400330770917310    0.6199750371613295 Cs
   0.0000000027896223   -0.0364043242374713    0.3769579237806966 Cs
  -0.0000000015254549    0.1478750017898006    0.8610627291328169 Li
   0.5000000097045647    0.3292367160970607    0.1450123113112753 Li
   0.0000000005359170    0.4741872760806304    0.0965292230264092 Bi
   0.4999999913911030    0.0383942525035785    0.8899397752669730 Sb
