Cs1 Na1 Sb1 O1
1.0
   5.8552614366727695   -0.0260784835821794   -0.1401412040593188
  -0.1774632489483381    3.6518817589484009   -0.1411267024381637
  -0.2216269661512704   -0.0521882313728545    6.8577158590383993
Cs Na Sb O
1 1 1 1
direct
   0.0412633293323665    0.6377158380100256    0.6248205833116952 Cs
   0.4167339647205057    0.7202654294321621    0.0683758459866424 Na
  -0.0656222933361786    0.1861012067750654    0.1090519022760631 Sb
   0.2091589980374152    0.1885555372547250   -0.0522483381994236 O
