K2 Li2 Bi1 Sb1
1.0
   5.3547260701292281    0.0000041098044100    0.0000031129953238
   0.0000034298082287    5.6899285429524076    0.2884221842085173
   0.0000020400234758    0.2362752883332588    6.6152746269691214
K Li Bi Sb
2 2 1 1
direct
  -0.0000000023843922   -0.0609246587615465    0.3544375946046210 K
   0.5000002624661312    0.4591568406330763    0.5880235123954026 K
   0.0000002905397174   -0.0110118559995433    0.8710394637685099 Li
   0.4999995428347520    0.3038553957944214    0.0888196836457666 Li
  -0.0000009267343370    0.4777026332161918   -0.0100987332781981 Bi
   0.5000008302359950    0.8245436280857634    1.0105224608324426 Sb
