Cs1 Rb1 Li2 Bi1 Sb1
1.0
   5.1641730740662748   -0.0000002220556927    0.0000000946499850
  -0.0000001679919450    6.5971975730880041   -0.5524312782759664
   0.0000000722650110   -0.6130756814434901    7.7554575593396624
Cs Rb Li Bi Sb
1 1 2 1 1
direct
   0.5000000033613398    0.5779233740635404    0.6159550935707402 Cs
  -0.0000000161793254    0.0271216910497783    0.4414369388033881 Rb
   0.0000000066442562    0.0371953644132861    0.9542511443910111 Li
   0.4999999186453538    0.3617836256793327    0.1144707402498392 Li
   0.5000000404410998   -0.1207526366534022    0.1049653176537058 Bi
   0.5000000417256567    0.1112515805075334    0.8070707700411697 Sb
