Rb1 Na1 Sc1 F2
1.0
   3.2804212642533663    0.0156505377117437    0.9516634448172898
   0.1493978165572410    7.5503797613159511    0.2906921864772933
   0.6101151106573519    0.2538645096839498    7.0522235631332517
Rb Na Sc F
1 1 1 2
direct
  -0.1185261187034391    0.5238713452487032    0.2394827616507127 Rb
  -0.0219917334117527    0.0586546862775792   -0.0282197186977561 Na
   0.2577054822967570    0.0177429480734877    0.4719522368028894 Sc
   0.2672586508019299    0.2696426919880930    0.4299659942491751 F
  -0.1560332971480624   -0.1266376548683595    0.3869077284981978 F
