K2 Mg1 Bi1 As1
1.0
   5.1619503365504453    0.0000000406639898   -0.0000172051034903
   0.0000000504745249    4.4005311379298195    0.0000003791092891
  -0.0000088629991823    0.0000001886257592    7.8075909266109607
K Mg Bi As
2 1 1 1
direct
  -0.0000026202177838   -0.0000000391008257    0.3822021854312503 K
   0.5000008639151104    0.4999999956187010    0.6866067964802087 K
  -0.0000016638578740    0.5000000367374758    0.9953571438733164 Mg
   0.5000025415512441    0.4999999733142247    0.1677102365007939 Bi
   0.0000008791447202    0.0000000332411809    0.8111116161690425 As
