Rb1 Na1 Sc1 F2
1.0
   3.6190201912466677    0.1343094044914875   -0.1300628939351013
   0.1628595580222097    7.1531776034750649   -1.4732225277024780
  -0.1696028209160732   -1.2188655614143991    6.3387881399625812
Rb Na Sc F
1 1 1 2
direct
   0.0081900923455752    0.5479356735107636    0.2531718373809842 Rb
  -0.1018995995540893   -0.0943654147235221   -0.0657612075848045 Na
   0.1633733494051153    0.1410060320745231    0.5977111886303980 Sc
   0.1355363058811842    0.1860654713334074   -0.0841570773108295 F
   0.0232128562139219   -0.0373677650283051    0.2992832621637205 F
