V1 Fe1 B1 O1
1.0
   6.0840053331394328    0.0648122157513888   -0.1303928016641890
   0.0672810063689983    5.3823425629070938    0.2194866880438306
  -0.1841885199637213    0.2338555201656862    3.0833728985410032
V Fe B O
1 1 1 1
direct
  -0.0806266027472409   -0.2656444623583850   -0.1779695561234467 V
   0.0091776770107921    0.2547925399199077    0.7417775761008817 Fe
  -0.0659825632130263    0.0312862382671272    0.2667025234921850 B
   0.1605694899316197    0.5649336897192335    0.8078304546916608 O
