Cs1 Rb1 Li2 Bi1 Sb1
1.0
   4.8445815096815377    0.0000005924728818   -0.0000009959178905
   0.0000003256156641    5.9667553964662821   -0.4477273922523789
  -0.0000006464072746   -0.5084505793647822    9.8642209786962312
Cs Rb Li Bi Sb
1 1 2 1 1
direct
  -0.0000000216548689   -0.1560758856430720    0.3077749085004942 Cs
   0.4999999581005504    0.4175722746193535    0.6271606608745887 Rb
  -0.0000000250995534    0.3307800789047540    1.0840799142381439 Li
   0.5000003044674299    0.0406295980963418    1.0101441246933041 Li
   0.5000000976831528    0.5477544919580498   -0.0013365509660750 Bi
   0.4999996827702831    0.3364864286649295    0.2535058920835343 Sb
