Rb2 Te1 Se1 S1 O1
1.0
   5.9463190221205977    0.0693320729036224    0.0401970160586711
   0.0695439938317254    5.7812700672719703    0.0485986233421678
   0.0390426383983505    0.0492059831505929    6.0659443609445347
Rb Te Se S O
2 1 1 1 1
direct
   0.0093346745129993   -0.0041363000397392    0.6562311664964395 Rb
   0.3015142146112835    0.6820501028512895    0.2282336971201533 Rb
   0.7096749266638419    0.2781414564275114    0.2456938312111338 Te
   0.3012863570286975    0.6833910822537967    0.2295555337085112 Se
   0.5085700903915211    0.0331695328278587    0.5000721585030313 S
   0.0029527399320746   -0.0059488703592258    0.1407526082356736 O
