Cs1 Rb1 Li2 Bi1 Sb1
1.0
   5.4630098595865615   -0.0000007589566518    0.0000003812390995
  -0.0000006582175999    5.8800474651021561   -0.8878551329857904
   0.0000002192412349   -1.0195410475499875    6.6637543943330630
Cs Rb Li Bi Sb
1 1 2 1 1
direct
   0.5000000526142678    0.5565790482727585    0.5325788842364592 Cs
  -0.0000000045387190    0.0566052566950220    0.5252213302977528 Rb
  -0.0000002416112093    0.0046079311602055    1.0263125116341179 Li
   0.5000001427990528    0.3607556064566000    1.0014225265916938 Li
   0.5000000755019763   -0.0997320554951541    0.1155383710083673 Bi
  -0.0000000302547528    0.5186982358057952    0.0593193778481855 Sb
