Ba3 Te1 Se2
1.0
   6.0442452657964054    0.0000000000705437   -0.0000000026796349
   0.0000000000704897    6.0442452656992174   -0.0000000026863817
  -0.0000000026932094   -0.0000000027004285    6.1937630810016326
Ba Te Se
3 1 2
direct
   0.4999999999838197    0.4999999999646483    0.6755646561780103 Ba
   0.0000000000380768   -0.0000000002438179    0.3117136880147070 Ba
  -0.0000000000098539    0.0000000000730194    0.5351535678475137 Ba
   0.4999999999670183    0.4999999999588622    0.5082589840233134 Te
   0.5000000000026883    0.5000000000111191    0.1820667080912122 Se
   0.0000000000065690    0.0000000002287075    0.2461824038633093 Se
