Rb1 Li1 Mo1 O1
1.0
   6.0000000000000000    0.0000000000000000    0.0000000000000000
   0.0000000000000000    6.2089126073490011    0.0000000583947489
   0.0000000000000000    0.0000000530183601    6.4544233497514671
Rb Li Mo O
1 1 1 1
direct
   0.0000000000000000    0.0000000001427501    0.2134858870456539 Rb
   0.0000000000000000    0.5000000008691931    0.0217649826039368 Li
   0.0000000000000000    0.4999999997031396    0.5798607680271681 Mo
   0.0000000000000000    0.4999999998533468    0.2891153717942644 O
