Sr1 Si2 Rh1
1.0
   6.0000000000000000    0.0000000000000000    0.0000000000000000
   0.0000000000000000    6.3799598927906764   -0.6310728318673906
   0.0000000000000000   -0.7079973530911560    4.8496464865687923
Sr Si Rh
1 2 1
direct
   0.0000000000000000    0.6305607190977558    0.1902885574728864 Sr
   0.0000000000000000    0.3553478235584580    0.6036272409648468 Si
   0.0000000000000000    0.0386505710020689    0.7591513591700958 Si
   0.0000000000000000    0.0714378768714004    0.2422438338591145 Rh
