Ba3 Te1 Se1 O1
1.0
   4.5637502111116595    0.1137367977321662   -0.7672365005009255
   0.0499925619085607    5.2430233094032230    1.1620619101940923
  -0.4368645483860099    0.6495658670340927    9.1646591218352658
Ba Te Se O
3 1 1 1
direct
   0.0122480010860272    0.5338349210625238    0.3542779143488040 Ba
   0.1144964789720265   -0.1239371034447341    0.6730575917571248 Ba
  -0.2253423816703684    0.1728472887379270    0.0716871682808811 Ba
   0.6223347618621750    0.3789853559397517    0.6651340879177979 Te
   0.3328253093168106    0.6800290336636999    0.0611934525798650 Se
  -0.0232291621867715    0.0249075017117206    0.3686597360078129 O
