Cs1 Na1 Ag1 As1
1.0
   5.4618896507875405    0.1870913038989805    0.0179245543573535
   0.1839948147718293    6.9723447685103022   -0.2749704898199983
  -0.0263929046350123   -0.3258707836939812    4.7799193486841238
Cs Na Ag As
1 1 1 1
direct
  -0.0203386171604054    0.5778273767118500    0.8502195870994944 Cs
   0.4177202301449008    0.0864405630438391    0.5140850839724965 Na
  -0.0793881824313257    0.0960542245171307   -0.0793074726627820 Ag
  -0.0714684203670019   -0.0103221623167094    0.4035128043345131 As
