Ba2 Te2 S1
1.0
   5.9999999999999982    0.0000000000000000    0.0000000000000000
   0.0000000000000000    5.9849651834373550    0.0257879334980376
   0.0000000000000000    0.0257708131917409    5.8510286828806439
Ba Te S
2 2 1
direct
   0.0000000000000000    0.0010925042385552    0.5304453649054478 Ba
   0.0000000000000000    0.0157965458003484    0.4887433416388752 Ba
   0.0000000000000000    0.0212953668173782    0.4731472550263550 Te
   0.0000000000000000    0.5004850267007231    0.2774982527074418 Te
   0.0000000000000000   -0.0002914432136008   -0.0024132197370283 S
