Sr1 Si2 Ir1
1.0
   6.0000000000000000    0.0000000000000000    0.0000000000000000
   0.0000000000000000    6.9320756942459614   -0.0979106210233454
   0.0000000000000000    0.0372971528869750    4.2064040164788086
Sr Si Ir
1 2 1
direct
   0.0000000000000000    0.5985932950261652    0.0878227748112756 Sr
   0.0000000000000000    0.2579831576309948    0.5891444672856418 Si
   0.0000000000000000    0.0808690124063499    0.0892486442963119 Si
   0.0000000000000000   -0.0844904737503328    0.5892521158382008 Ir
