Ba2 Te3 S1
1.0
   5.4827546618845115   -0.0000000049093728    0.0000000104491663
  -0.0000000047693893    6.6056285739189047    0.4315445813005944
   0.0000000091828563    0.4376358980280604    6.4346720690746881
Ba Te S
2 3 1
direct
   0.0000000016804311    0.0437988106078287    0.8825350725031879 Ba
  -0.0000000001337379    0.4594941241687259    0.3460891448304651 Ba
  -0.0000000030676014    0.5550325841689771    0.8437118856436551 Te
   0.5000000018971091    0.2372328258606783    0.5406313530524010 Te
  -0.0000000001545152    0.4588668781071118    0.3460983167171494 Te
  -0.0000000004137146    0.0031717784776663    0.3671272294952321 S
