Ba2 Cd2 S2
1.0
   5.8387405874036276   -0.0000000001736399    0.0000000165084874
  -0.0000000001589315    5.5023140659214755    0.0000000198963843
   0.0000000172629980    0.0000000244563726    6.2481233653637638
Ba Cd S
2 2 2
direct
   0.5000000144807235    0.5000000104793704    0.5077038555584135 Ba
   0.0000000001574917    0.0000000006028325    0.6362718351431559 Ba
  -0.0000000019930191   -0.0000000041589495    0.1330774199182455 Cd
   0.4999999994250630    0.0000000066110459    0.4612106970385541 Cd
   0.4999999998404922    0.0000000000605388   -0.0032738512656383 S
   0.4999999876938561    0.4999999862289396    0.4520780509458092 S
