Ba1 Na3 Sb1
1.0
   5.9999999999999982    0.0000000000000000    0.0000000000000000
   0.0000000000000000    6.3082020574690159   -0.1431931902066862
   0.0000000000000000   -0.1458760897872786    6.5958657978114443
Ba Na Sb
1 3 1
direct
   0.0000000000000000    0.5605355036637094    0.1215406330026783 Ba
   0.0000000000000000    0.1859875692386807    0.5628202892549484 Na
   0.0000000000000000    0.2474391496890134    0.5678078220298139 Na
   0.0000000000000000    0.2053281744335270    0.5230796009402631 Na
   0.0000000000000000    0.5002976029679219   -0.0001543482044087 Sb
