Ba2 Al1 P1
1.0
   4.2848918407341792   -0.0000000022391193   -0.0000000678377057
  -0.0000000037946011    5.7119453263262896   -0.0000000014122948
  -0.0000000477264895   -0.0000000009236910    7.0868488036244806
Ba Al P
2 1 1
direct
   0.4999999877590970    0.4999999994411756    0.8112580417046391 Ba
  -0.0000000082996839    0.0000000000412709    0.2865093729287726 Ba
   0.0000000002546679    0.0000000001272397   -0.2239831941859823 Al
   0.5000000167188429   -0.0000000000151889    0.6140577740787778 P
