Ba3 Te2 S1
1.0
   6.2976672507982272    0.0000000012088622    0.0000000122459881
   0.0000000005991740    5.9713096528956342   -0.1462462862664743
   0.0000000113177616   -0.1451308988459927    5.8477189840546622
Ba Te S
3 2 1
direct
   0.5000000007404112    0.5609867241523142    0.3676814757886916 Ba
   0.0000000034057521   -0.0206044103071517    0.7483197217489845 Ba
  -0.0000000036815141    0.0161934661855261    0.7739666740934398 Ba
   0.4999999993839109    0.2017792238015477    0.8101894638384551 Te
   0.0000000004672598    0.4990161934219353    0.2310368114455064 Te
   0.0000000000337763   -0.0120761932320595    0.2618828584154252 S
