Cs1 Rb1 Li2 Bi1 Sb1
1.0
   5.2687967231274193    0.0000003241501773    0.0000002848357405
   0.0000002868034828    6.0051282931879193   -0.4261335288587749
   0.0000002385796332   -0.4906189314606391    6.5310671419126862
Cs Rb Li Bi Sb
1 1 2 1 1
direct
  -0.0000000464602889    0.5289122504107873    0.4045558475726185 Cs
   0.5000000027016995   -0.0117057049364842    0.5515885669660117 Rb
  -0.0000001653798632    0.4066693301847907    0.8961354273273343 Li
   0.5000001524409969    0.1182822473811891    1.0560532838743903 Li
   0.0000000298045965   -0.0696958368198792   -0.0091412877959482 Bi
   0.5000000232611612    0.5657717270264323    0.9117521709438869 Sb
