Sr1 Y1 In1 Au1
1.0
   4.0860995813074314   -1.1112941410079649    0.0531618706836836
  -0.4584692934847939    6.4271797548262954   -0.0055604319406326
  -0.0709883582016744    0.0979342989788589    4.5461432345616011
Sr Y In Au
1 1 1 1
direct
  -0.0377599400068700    0.5580616302915203    0.3329874221983365 Sr
  -0.3155675138575040   -0.0199141647286836   -0.1581279785671471 Y
   0.3737597210157751    0.3822022079611828    0.8393162501395217 In
   0.2338977276203138    0.0796503537017735    0.3471283142987224 Au
