Na2 Cu1 Ag1 As1
1.0
   5.9999999999999982    0.0000000000000000    0.0000000000000000
   0.0000000000000000    5.4431735283345368   -0.6737406429070718
   0.0000000000000000   -0.6527554261717006    6.9731740027861662
Na Cu Ag As
2 1 1 1
direct
   0.0000000000000000    0.3299942007429396    0.7816021646920691 Na
   0.0000000000000000    0.2125787435064804    0.3325584731105883 Na
   0.0000000000000000   -0.1326711978252548    0.8925263646888991 Cu
   0.0000000000000000    0.6807858610656374    0.1904250170347729 Ag
   0.0000000000000000   -0.2321816138746871    0.5565569611072905 As
