Rb2 Te1 O1
1.0
   5.7510436494576336   -0.0000001084013386   -0.0440185241526491
  -0.0000001146881782    6.0306804000260534   -0.0000001837517978
  -0.0415114636705346   -0.0000001924341778    4.5104586842755134
Rb Te O
2 1 1
direct
  -0.1043593090059726    0.7499999730875251    0.0569848119881674 Rb
   0.3003896591505208    0.2500000056915835   -0.0068905361373264 Rb
   0.4041569406889779    0.7500000194380179    0.5495582740708264 Te
   0.2818267047166199    0.2500000018738090    0.9790984566855695 O
