Cs1 Na1 Ag1 Bi2 Te2
1.0
   6.2393089187444151    0.0000000023896997    0.0697148741545039
   0.0000000025027845    5.9454343808346781   -0.0000000118622450
   0.0711098185591558   -0.0000000119181030    6.1599746650657021
Cs Na Ag Bi Te
1 1 1 2 2
direct
   0.2149631276956078    0.0000000001934465    0.0942883988387702 Cs
   0.4404381385314303   -0.0000000001728655    0.4527607101505439 Na
  -0.1404011292504730    0.0000000000330767    0.3618319079314020 Ag
  -0.0245563780644987    0.0000000000884811    0.7429105757554657 Bi
   0.0012977119305357    0.4999999959309699    0.2468302926973513 Bi
  -0.0071625495170240    0.4999999992826650    0.2515618354110208 Te
   0.0008720858542622    0.5000000047703459    0.2565182688674539 Te
