Rb1 Y1 In2 P1
1.0
   3.9622434887117031   -0.0550172847353938    0.5020529939301697
  -0.0550176699470342    3.9622436135066201   -0.5020516176980110
   0.2771034757983538   -0.2771034115882612    9.5977862948174675
Rb Y In P
1 1 2 1
direct
   0.6153564950043258    0.3846429895867219    0.7311725112766211 Rb
  -0.1981140059257303    0.1981142597465051    0.2618995682952905 Y
   0.2495229600152127    0.7504771755938469    0.4294315813457283 In
   0.3534369489528358    0.6465633074529195    1.0856992366142122 In
  -0.0202033988690146    0.0202032721722473    0.9712841396913617 P
