K1 Rb1 Sc1 S3
1.0
   4.9220242164979844    0.0000005536524798    0.0000009212763507
   0.0000004755606592    5.4704776701641933    0.5052080831313505
   0.0000008614736836    0.5151484086014213    5.7887845908751920
K Rb Sc S
1 1 1 3
direct
   0.0000001784625942   -0.0507785308446829    0.4219080613753968 K
   0.4999999833108875    0.2644072939722988    0.6656020325983648 Rb
  -0.0000001833980830    0.6578901129300756    1.1243536687416111 Sc
   0.4999995587398576    0.4829363227881945    0.1260716152837732 S
   0.0000001606963561   -0.0436466748310075    0.4374960630024676 S
   0.5000003052246904   -0.1382085193892283    0.1231135564033254 S
