Ba1 Sr1 Te1 O1
1.0
   3.9934827192227740    0.0070926503894509   -0.2157019715088014
   0.0316377697336032    4.3134940690666621    0.8803741947206882
  -0.2089861217982214    0.9460209524034140    6.1483482385263670
Ba Sr Te O
1 1 1 1
direct
  -0.0300529824032021    0.0534096239361724    0.3187264182942103 Ba
   0.0464669511287686    0.7520546972429427    0.9440148439051604 Sr
   0.5090680011138997    0.3841813974216091    0.6715664879767055 Te
  -0.0210499679679414    0.0603542877896695    0.2992482320777715 O
