Na2 Cu1 S1
1.0
   4.0389128085196813    0.1451044039116731    0.0166721504969906
   0.1867304585465444    5.6892732723264121    0.3877590214897334
   0.0418538054986463    0.3894831676320721    4.7197426098978337
Na Cu S
2 1 1
direct
   0.2422846561551287    0.7602306082822978    0.8398569156641762 Na
   0.5370600081602565    0.2641584952393093    0.4484223529388962 Na
   0.0117819881517657    0.2581753065268221   -0.0290563317336689 Cu
   0.0628183434903676   -0.0325644138813897    0.3046560615606485 S
