Cs1 Li3 Bi1
1.0
   4.5821570582844569   -0.0000041942310458   -0.0000045632237798
  -0.0000028068868336    6.7306038783224231    0.2415956512027009
  -0.0000034506088428    0.2437273786905129    6.0509436403945331
Cs Li Bi
1 3 1
direct
  -0.0000000310377220   -0.1711305004010532    1.0349266183973225 Cs
   0.0000191752560600    0.2828440476610518    0.4120427517979362 Li
  -0.0000162528035366    0.2860656743929317    0.4368977673439280 Li
  -0.0000009408252864    0.3517057761292167    0.8778929038736136 Li
   0.4999980486827607    0.3328000260179462    0.1469969579665927 Bi
