Ba2 Cd2
1.0
   6.9278080159274591    0.0000000021655955   -0.0000000225507066
   0.0000000021656361    6.9278080150152972   -0.0000000224872103
  -0.0000000214313691   -0.0000000213651240    6.7340107914060656
Ba Cd
2 2
direct
   0.5000000006003655    0.5000000006611905    0.1872809887120480 Ba
   0.5000000000174040    0.5000000000709718    0.3501444688541620 Ba
  -0.0000000009493754   -0.0000000009588581    0.0610469264554241 Cd
   0.0000000003466939    0.0000000003155626    0.6647656113210116 Cd
