Rb1 Sr1 Tl1 S1
1.0
   3.8902162680635834   -0.0061797584768747    0.4144560606306174
  -0.0061797128489486    3.8902157238114721   -0.4144563698566723
   0.3629519324678937   -0.3629520788484305    7.7656640811684827
Rb Sr Tl S
1 1 1 1
direct
   0.3441916418965330    0.6558082949474456    0.8649896584489899 Rb
   0.7396232632247322    0.2603767681136609    0.2108823948420859 Sr
   0.2000042528109734    0.7999957704395465    0.4412691982055084 Tl
   0.7161808472528174    0.2838191654207666    0.1993747457210207 S
