Rb1 Na1 Cu1 As1
1.0
   4.4578843872968070    0.0000153686368258   -0.0000015396098897
   0.0000114208587310    6.0798394610941280   -0.0008313661911726
  -0.0000011103273233   -0.0010550245279624    4.5702434580982700
Rb Na Cu As
1 1 1 1
direct
  -0.0000027845476355   -0.0025273642480395    0.1800301817036015 Rb
  -0.0000000824574684    0.4998799452355854    0.3696434716125412 Na
   0.5000001553812086   -0.0012402705646944    0.4060413913240049 Cu
   0.0000027106385755    0.0038876877213306    0.1889649414552537 As
