Cs1 Na1 Sb1 F2
1.0
   3.4009732764736520   -0.2245963816118524   -1.0652368473745844
  -0.1319709134321598    5.4725456016519729   -1.2818310623385880
  -0.7702319970377468   -0.9985661211398669    7.7651487870230795
Cs Na Sb F
1 1 1 2
direct
  -0.0969075457288481    0.4934941447930714    0.2609554372603143 Cs
   0.3362118399670531    0.2005605806041948    0.6731741521030501 Na
  -0.0419296502895759   -0.2029524836515467   -0.1403908116865117 Sb
   0.0867662992506001    0.2085496173386732   -0.1006236423969096 F
  -0.0403599669227764    0.0436371368583879    0.3643268632866984 F
