Ba1 Na3 Bi1 P1
1.0
   5.9386551540067920    0.0000000004088809    0.0000000010817794
   0.0000000003446213    6.2637933826349705    0.0197407723847363
   0.0000000010716731    0.0198839313919437    5.9253456637216084
Ba Na Bi P
1 3 1 1
direct
   0.0000000005827462    0.5557592413957667   -0.0021213034681427 Ba
  -0.0000000512115912    0.2420632965138174    0.4722020128676270 Na
   0.0000000155165828    0.2104425941992163    0.5042763621251711 Na
   0.0000000344398804    0.2646797759090273    0.5115540141106460 Na
   0.0000000004431090    0.0518853934375885   -0.0018658775318626 Bi
   0.5000000001570249    0.4858116989739341    0.1690957909447673 P
