K1 Li1 Mo1 F3
1.0
   5.9723077675740086   -0.0164556711390027   -0.0077851799771596
  -0.0164098886181611    6.0709568490970582    0.0457646602896265
  -0.0077575706453616    0.0457667036014511    6.0079227106738813
K Li Mo F
1 1 1 3
direct
  -0.0110726944667619    0.2588833432715732    0.1363400649473512 K
   0.0141047526620854   -0.0531260018994459   -0.0221621298750235 Li
   0.4933941680956190   -0.0025178416684298    0.4980566179993716 Mo
   0.2297296690898089   -0.0039568055021815    0.2478706468676303 F
   0.2529727027790857    0.0004913226907153    0.2683809939161822 F
   0.2964824007048361    0.7497249809549013    0.9321078050225521 F
