Cs1 Na1 Sc1 F2
1.0
   3.6671999673974045   -0.4042297947407063    0.6506658488269061
  -0.1019457899745714    8.1852814152451252    0.3984053051684630
   0.4697734302241964    0.3852742393768303    6.7979326519942385
Cs Na Sc F
1 1 1 2
direct
  -0.1463342794384740    0.5234128018734556    0.2818755302955215 Cs
  -0.0080827321472340    0.0693724908683630   -0.0097391126845323 Na
   0.1234984165846648    0.0124499051512117    0.4911085745212069 Sc
   0.2468826533899237    0.2498161479946816    0.4486655808660875 F
  -0.0135310592733507   -0.1117773455246443    0.2883774233007618 F
