Cs1 Na1 Bi1 F2
1.0
   3.3991495926681061   -0.0225872267706866    0.1519348902127818
  -0.0048175266670390    3.8113891490578649   -0.2888895212822021
   0.3503369718621586   -1.1384463587221831   10.0950385157843812
Cs Na Bi F
1 1 1 2
direct
   0.2354432905003445    0.1303752099178049    0.1961541838212657 Cs
   0.1909837368974777   -0.2148406834387029    0.5096090126306504 Na
  -0.0369239952595415    0.4469016225876805   -0.1538133643577211 Bi
   0.1294769117322169    0.3287533298777954    0.6000604500122210 F
  -0.3120469247684572    0.7011895297783393    0.3480736845975903 F
