Ba3 Te1 Se1 S1
1.0
   5.9543617608770338   -0.0000000080526173    0.0039938497476526
  -0.0000000080711994    5.9725421983689309    0.0000000078833689
   0.0040145571535323    0.0000000079044069    5.9336856678749612
Ba Te Se S
3 1 1 1
direct
   0.0000367014839209   -0.0000000211761092    0.3199870719162994 Ba
   0.5001064530094563    0.4999999999449578    0.5539868862119789 Ba
  -0.0074519358134923    0.4999999511972079    0.2721719583583476 Ba
  -0.0089928063311921    0.4999999465591554    0.2819435502601045 Te
   0.0162436272251753    0.4999999823746467    0.2932361162377719 Se
   0.0000579628328535    0.0000001410329914    0.2929584128993412 S
