Rb2 Na2
1.0
   6.0000000000000000    0.0000000000000000    0.0000000000000000
   0.0000000000000000   11.5317275241216688    0.7332639638527406
   0.0000000000000000    0.9281208936566022    8.1165958140379768
Rb Na
2 2
direct
   0.0000000000000000   -0.0780210781670898    0.1780075492930684 Rb
   0.0000000000000000    0.6140920406542781   -0.1297560552167203 Rb
   0.0000000000000000   -0.0206734321240105    0.6635904440653857 Na
   0.0000000000000000    0.2415644798804355   -0.1042029364699832 Na
