Ba1 Zn1 Mo1 O2
1.0
   4.6083112426810340    0.3109232143496954    0.1511921209831523
   0.3612317451920948    6.6749552147928508   -0.2802940061736794
   0.1181989303542545   -0.3004982112527081    4.7901233289802523
Ba Zn Mo O
1 1 1 2
direct
   0.0917915546089220    0.4880974339842373    0.1234773186000818 Ba
  -0.2229596325062440   -0.0097387111110869   -0.0125026101914896 Zn
   0.1600912804062668    0.0609383767839619    0.5276524065077578 Mo
   0.1613457960102595    0.3408654650344686    0.5997226754583251 O
   0.0424990058350227   -0.1368945577539346    0.2736501937008519 O
