Hf2 Sn1 Te3
1.0
   6.0279176345972978    0.0006833729130413    0.0168262014270472
   0.0006779218854547    6.1487452776278424    0.0017146837430488
   0.0148845892663764    0.0017192382138524    6.5582686860924859
Hf Sn Te
2 1 3
direct
  -0.0615007226166120    0.2501087921769344    0.6337247011532406 Hf
   0.0335922328354483    0.2481173474697085    0.1246331892729331 Hf
   0.1339832239770973    0.7501986688580621    0.2311662088048042 Sn
   0.1115074986154222    0.2502819530095802    0.5790265744300482 Te
   0.1123117986757420    0.7498319947833574    0.9440092605043571 Te
   0.0713169714742766    0.7516552437414872    0.2149980615433831 Te
