Ba3 Sc2 S1
1.0
   5.9217189300670796   -0.5868067033862505    0.0693112558786267
  -0.5868067124863201    5.9217198078559647   -0.0693098684276336
   0.0672761890088173   -0.0672750070572585    6.3715078002500967
Ba Sc S
3 2 1
direct
  -0.0079357288999233    0.0079352707925790    0.7635534244139220 Ba
   0.3318253575741472    0.6681757464964918    0.7738777061349975 Ba
   0.3454067229939614    0.6545269550718952    0.2830849550177985 Ba
   0.6349023727095047    0.3650909989086567    0.1293040198634011 Sc
   0.6616256922449646    0.3383745099862450    0.6048118242534416 Sc
   0.3675085818505243    0.6325635195252128    0.2677590678854591 S
