Cs1 Rb3 Na1 As1
1.0
   5.1097884253538428    0.0245876713267643    0.0107189495734264
   0.0034731861309151    8.8267564839114314   -1.3621281847933950
   0.0174779187760069   -1.3136294452893853    8.9793533990920569
Cs Rb Na As
1 3 1 1
direct
  -0.0358363912557035    0.0170036198032063    0.3767602522594867 Cs
  -0.0315864429211469    0.7361937867592180    0.9582516453958489 Rb
  -0.0315627662472698    0.4981706149875221    0.3225999996430039 Rb
   0.4675234297200941    0.2709012858920264    0.9340273857899898 Rb
   0.4662700489984822    0.7943334638758641    0.5592142507985849 Na
   0.4666311408594091   -0.3067077814967558    0.2130584739045633 As
