Ba3 Te2 S1
1.0
   5.9335636435774406    0.0731025912331658   -0.0025615196476520
   0.0861479419733372    9.5208685289334500   -0.0363355686815000
  -0.0022010476833399   -0.0384070274856446    6.5619924904769444
Ba Te S
3 2 1
direct
  -0.0127809004132974    0.3242378769045022    0.2322846963791400 Ba
   0.0592473692352054   -0.0217579955685945    0.2602692368910339 Ba
  -0.0498805162698951    0.7396418635051107    0.7562567457883886 Ba
   0.5648663190386990    0.8101255622335697    0.2486016315251444 Te
   0.0173810754551891    0.4581386460399436    0.2555092162027123 Te
   0.0165886523202644    0.0260720439083168    0.7553664730355500 S
