Ba1 Zn1 Mo1 O1
1.0
   3.2723240060415866    0.4166436891105382   -0.0241280703405636
   0.4161395025376453    7.1217253468086810   -0.7684178989761981
  -0.0258378715968090   -0.8535625054940829    4.1283770539577196
Ba Zn Mo O
1 1 1 1
direct
   0.0971966638308461    0.4941779496062461    0.2784273353742697 Ba
  -0.2299042278964413   -0.0810615484995598   -0.0115081429287272 Zn
   0.2284159658698345    0.0186443638050649    0.5424090851091197 Mo
   0.1370596011651437    0.3115072352204056    0.6846657179192991 O
