Cs2 Li2 Bi1 Sb1
1.0
   5.2056130525437379   -0.0000001751754818   -0.0000005553830446
  -0.0000001622430799    5.3556159445623486    0.0246075130508193
  -0.0000003438771880    0.0251944299978590    7.9832997096392688
Cs Li Bi Sb
2 2 1 1
direct
   0.0000000137683492   -0.0088534281901622    0.7076760820123909 Cs
   0.4999999824302125    0.4691457545701892    0.4110020771926449 Cs
  -0.0000001124635826    0.4430287810530494    1.0516702330902408 Li
   0.4999999919133164    0.0834134806573703    0.0444061183257999 Li
  -0.0000000737708008   -0.0647271011085346    0.1951504002691373 Bi
   0.5000002007549138    0.5895004970227473    0.9346751070364214 Sb
