Li1 Mg1 Bi2
1.0
   4.2084916782349664    0.0000001750223383    0.0000000557535364
   0.0000001750223325    4.2084916769522769    0.0000000553457513
   0.0000000572015673    0.0000000575973166    6.0230109194991570
Li Mg Bi
1 1 2
direct
  -0.0000000014128924    0.0000000000375696    0.4296869363572246 Li
   0.5000000043817635    0.5000000042908705    0.7887342357582000 Mg
   0.4999999910798915    0.4999999913508460    0.2869030966634850 Bi
   0.0000000048212306    0.0000000043365985   -0.0664332559335218 Bi
