K1 Rb1 Li2 As1 P1
1.0
   4.6352309187810832   -0.0000025649499490    0.0000091745920173
  -0.0000021695385020    5.6554412386663051   -0.2344862831455206
   0.0000065600179747   -0.1897960767148584    7.0945242349191986
K Rb Li As P
1 1 2 1 1
direct
  -0.0000003789902449   -0.0116970146717470    0.3707097354900765 K
   0.4999968670208798    0.5195004716374629    0.5890967194125130 Rb
   0.0000005149123311   -0.1392347379809665    0.9178106194940698 Li
   0.5000007834026468    0.3470561030200800    0.0800212950813206 Li
   0.5000018223378290    0.0356968694384067    0.8186568327520027 As
   0.5000004000505610    0.8004803437890218    0.0796937923867733 P
