Ba2 Te1 S1
1.0
   5.8900699988437113   -0.0000000004330010   -0.0000000001243303
  -0.0000000004332303    5.8378717909636020   -0.0001153980054303
  -0.0000000001249162   -0.0001138668811158    5.9377328093060155
Ba Te S
2 1 1
direct
   0.0000000000065650    0.5001005725102415    0.2172711891611633 Ba
   0.5000000000543983   -0.0000129350870664    0.3379232177693809 Ba
   0.0000000000018452    0.5001005302968837    0.2178405502279790 Te
  -0.0000000000067363   -0.0001881677730709    0.2526800494405412 S
