Rb1 Ba1 Te4 Se1 S2
1.0
   7.0222629167485291   -0.1726252273335616   -0.3285946606854329
  -0.1757525401090620    6.7083508828797385    0.3164333217830904
  -0.3449659753588923    0.3034307358443678    8.9828763266001435
Rb Ba Te Se S
1 1 4 1 2
direct
   0.3787171029138360    0.2858272594869007    0.0567520795599217 Rb
   0.4955873364990917   -0.0397513672403031    0.7404035470418161 Ba
  -0.0775054484768456    0.6601966973062522    0.3529073994092988 Te
   0.0202218449506776    0.7316483184539943    0.3085844856936841 Te
  -0.1547433854977963    0.6123516941237818    0.8108817277004294 Te
  -0.0259940017428402   -0.1100814662186061    0.4737769649530010 Te
  -0.0313771543771751   -0.0010719407827988   -0.1874022951896875 Se
   0.5162044137509030    0.4626301011700827    0.7553613438335247 S
   0.5130392876310773   -0.0066392947948560    0.3843557486004535 S
