Sr1 Si2 Pt1
1.0
   6.0000000000000000    0.0000000000000000    0.0000000000000000
   0.0000000000000000    4.1138364374761913   -0.0000000677252234
   0.0000000000000000   -0.0000000309231159    8.6279241933778561
Sr Si Pt
1 2 1
direct
   0.0000000000000000   -0.0000000024513262    0.6249430811777366 Sr
   0.0000000000000000    0.4999999946677200    0.3517598725447033 Si
   0.0000000000000000   -0.0000000001143373   -0.0193106223838582 Si
   0.0000000000000000    0.0000000078526127    0.2484256539989163 Pt
