Na2 Cu1 O2
1.0
   3.7294182480521516   -0.5502205696578861   -0.6732041048455601
  -0.6269140257702224    3.6327817183578115    0.7118562119196175
  -0.8034799099759994    0.5324197627385072    6.6781754701991600
Na Cu O
2 1 2
direct
   0.0643934123355447    1.1416062905568918    0.3127441037484139 Na
   0.5793504786193746    0.6647092837075662    0.6358691434006741 Na
   0.3262033109599787   -0.0884178761820632   -0.0267575940255230 Cu
   0.2227457326727260    0.0057745397582966    0.6955677771006236 O
   0.4227760466142779   -0.1953352393925454    0.2507345775297482 O
