Na2 Ag1 Bi1 As1
1.0
   4.2204206404427778   -0.9874006793222933    0.8765351285484300
  -0.9410875936323901    5.3135462073625703   -0.5995737501652291
   0.7121129410462712   -0.8404943351511811    6.5205343315025033
Na Ag Bi As
2 1 1 1
direct
   0.1396641131852372    0.2132612336058897    0.9352789538134201 Na
  -0.0497394485424819    0.5025577788489176    0.5826745088031076 Na
   0.3078958945370560    0.0409260162908024    0.3841036888071205 Ag
  -0.2984706584713229   -0.3348772739650770    0.2220726844584364 Bi
   0.6521130956461504   -0.0634317303141035    0.6257301414128739 As
