Cs1 Rb1 Li2 Bi1 Sb1
1.0
   5.1308575768387898   -0.0000081205447784    0.0000076992153010
  -0.0000072002802990    5.1521178124487079    0.1627249643332737
   0.0000055017896289   -0.0170017559601309    8.3353923928309328
Cs Rb Li Bi Sb
1 1 2 1 1
direct
   0.4999996166448495    0.4932323958688933    0.7485329422077386 Cs
   0.0000005694090212    0.0237914147952681    0.4188819880061052 Rb
   0.0000012222891111    0.4353939173098870    0.0928664853025242 Li
   0.4999986574110004    0.0574454382194954    1.0802268284030314 Li
   0.5000014850281038    0.5622451972815531    0.2367997158075290 Bi
  -0.0000015495751215   -0.0660583417054092   -0.0351229278532104 Sb
