Li1 Bi1 Te1 Pd1
1.0
   6.0000000000000000    0.0000000000000000    0.0000000000000000
   0.0000000000000000    4.4260361989252255   -0.0000019967083915
   0.0000000000000000   -0.0000020136583590    6.6961331048984825
Li Bi Te Pd
1 1 1 1
direct
   0.0000000000000000   -0.0000005179811774    0.4927721743809867 Li
   0.0000000000000000    0.5000004326093903    0.1911156218107439 Bi
   0.0000000000000000    0.4999998138492290    0.7458642941649711 Te
   0.0000000000000000    0.0000002725799736    0.9516939081191369 Pd
