Cs2 Li2 Bi1 As1
1.0
   5.7752114973317079   -0.0000000020553116    0.0000000001278180
  -0.0000000021636763    6.0076556212796017   -0.3617908553357620
   0.0000000001465263   -0.3626441412214336    6.3598423810039861
Cs Li Bi As
2 2 1 1
direct
  -0.0000000003536051    0.0092014035219364    0.5211514893065826 Cs
   0.5000000003383630    0.5473031269641743    0.5490789756354821 Cs
   0.0000000002250847   -0.0077860028485546    1.0254820166846161 Li
   0.4999999999853146    0.3306055967146506    0.9853693966181123 Li
   0.4999999934916436   -0.0319185109854204    0.1427088573891979 Bi
   0.5000000064440188   -0.0313576124345171    0.1323452630531060 As
