Ba3 Te1 Se1 S1
1.0
   6.2026396405609105   -1.3486877357907101    0.0024082377690795
  -1.5583861188888233    8.6403807858568307   -0.0231267263169850
  -0.1112169991220595    0.0727399782015711    4.6529774818525187
Ba Te Se S
3 1 1 1
direct
   0.6946388831680977    1.0454466600911840    0.2152690139297332 Ba
   0.3827468126678316    0.4305899886501020    0.2300515449661042 Ba
   0.0691893508846940    0.7886125964158568    0.7176038959367097 Ba
  -0.1056608211141199    0.3679662422176536    0.7104676048415910 Te
   0.5474938228356114    0.7399524671956109    0.7189915298000565 Se
   0.1944679283127534    0.0458030514921961    0.2171434155475592 S
