Ba1 Al1 Pt1 Au1
1.0
   6.0000000000000000    0.0000000000000000    0.0000000000000000
   0.0000000000000000    4.2675639885103376   -0.1221223044132636
   0.0000000000000000    0.1302304105463894    7.5098752206433126
Ba Al Pt Au
1 1 1 1
direct
   0.0000000000000000    0.4702939059919287    0.5473256799504929 Ba
   0.0000000000000000    0.4588911480092235    0.0768260309047359 Al
   0.0000000000000000   -0.0357042934770076    0.2456602936185924 Pt
   0.0000000000000000   -0.0444387641016217   -0.1264910091827075 Au
