K1 Li1 Mo1 F2
1.0
   5.9202843779542391    0.0402382075660477   -0.0198386064582728
   0.0404197608984530    6.0455490640028309   -0.0598377721309382
  -0.0191035653259081   -0.0567962167484260    6.6216875564494222
K Li Mo F
1 1 1 2
direct
   0.0124311911696085    0.4940194038067357    0.2530360732349317 K
   0.0040079981694829    0.0036327381931663    0.5486158245917080 Li
   0.0019331151958736   -0.0031294312391653   -0.0555086804516855 Mo
   0.2194271107735958    0.2622038772160632   -0.0058562056916375 F
  -0.0098544156493719   -0.0134515863083150    0.2658199977644691 F
