Ba2 Te1 S1
1.0
   4.9278710387017561    0.0000004164991673   -0.0794314020744087
   0.0000002417688559    6.7681191240971899    0.0000026316134459
   0.0302762321244301    0.0000037393966915    4.7499054691312699
Ba Te S
2 1 1
direct
  -0.1425142424456273    0.5000000678762437    0.4918154267260140 Ba
   0.3218463230520587   -0.0000003061459991    0.0080249769919801 Ba
  -0.1820426132815144   -0.0000000216721865    0.5149324277874608 Te
   0.3310465088826390    0.5000002416712279    0.0201401879420717 S
