Sr1 Si2 Rh1
1.0
   6.0000000000000000    0.0000000000000000    0.0000000000000000
   0.0000000000000000    4.0217701704455235   -0.0000005076085537
   0.0000000000000000   -0.0000004267650827    8.1485027057609791
Sr Si Rh
1 2 1
direct
   0.0000000000000000   -0.0000000813868895    0.6540831875599402 Sr
   0.0000000000000000    0.5000000412747179    0.1863816183740153 Si
   0.0000000000000000    0.0000000052121257    1.0258108577256100 Si
   0.0000000000000000    0.0000000349656411    0.3267703189702106 Rh
