Rb1 Y1 In1 O2
1.0
   5.0824089646160076   -0.0374282071982120    0.0649737496486572
  -0.0374281150536082    5.0823538083061131   -0.0649856550433396
   0.0870569314331688   -0.0870687694392991    6.6271567510377185
Rb Y In O
1 1 1 2
direct
   0.4632100494299189    0.5367908687093740    0.8465188026872931 Rb
   0.0113195541015792   -0.0113240474535026    0.3569211760347254 Y
  -0.0488282325141805    0.0488313493380745   -0.1395090160849803 In
   0.2794171112318768    0.7205837422225336    0.2212246034468188 O
   0.2948805262471930    0.7051190969745437    0.4475634348795911 O
