Li1 Bi1 Te1 Pd1
1.0
   6.0000000000000000    0.0000000000000000    0.0000000000000000
   0.0000000000000000    4.4042974849536183    0.0000142524620814
   0.0000000000000000    0.0000069830064045    6.7604650306400114
Li Bi Te Pd
1 1 1 1
direct
   0.0000000000000000   -0.0000007414158554    0.4921065193663301 Li
   0.0000000000000000    0.5000014013144440    0.1905689064153405 Bi
   0.0000000000000000    0.4999993755136749    0.7479813555205741 Te
   0.0000000000000000   -0.0000000353269259    0.9522602127942631 Pd
