Na1 Sc1 S1 O1
1.0
   3.2059313152853077   -0.9705454222303990    0.1521889796025096
  -0.7850871204019817    3.8431402546045468    0.3133164193352368
  -0.0433087359662739   -0.1226262182792214    6.4861843609528291
Na Sc S O
1 1 1 1
direct
   0.0779140341570522   -0.2033100963675932    0.0608410067063425 Na
  -0.3174829348301483    0.0565753006733316    0.5450685993464627 Sc
   0.3596013705472355    0.4353552601824414   -0.2182077145205401 S
   0.1657535269096763   -0.0043034685346373    0.3840000649683264 O
