Cs1 Rb1 Li2 Bi1 Sb1
1.0
   5.3827272773966373   -0.0000006027711716   -0.0000002587233254
  -0.0000004843215576    5.8350716946703329    0.7473279071426128
  -0.0000001361153891    0.7632079998609760    6.5752870526555132
Cs Rb Li Bi Sb
1 1 2 1 1
direct
   0.4999999385229127    0.5346656470143832    0.5655440171521889 Cs
   0.0000000355051031    0.0094742869430997    0.4757897843103094 Rb
   0.0000000346521635    0.0854442817928657    0.9801695204872960 Li
   0.5000005597321787    0.3967935524474033    0.0786845871345635 Li
  -0.0000005542087516    0.5705687119949188    0.0501288321992872 Bi
   0.4999999988856031   -0.0586954374388717    0.9631722492886076 Sb
