Cs1 Rb1 Sc1 S2
1.0
   4.7210352971635885   -0.4721584446955260    0.2959833886080559
  -0.4721585607304356    4.7210375012563475   -0.2959848257561571
   0.2542741033966847   -0.2542749845518179    6.8157432899436508
Cs Rb Sc S
1 1 1 2
direct
  -0.0022911245432838    0.0022911430912331    0.6496202100903582 Cs
   0.3742464646897947    0.6257536076410515   -0.0462503147610951 Rb
   0.6185092709692577    0.3814897513173413    0.1982484166488028 Sc
  -0.0443068111126917    0.0443075769672084    0.1763984481474127 S
   0.3871751962143606    0.6128249196766882    0.9605282416275429 S
