Cs1 K1 In2 O1
1.0
   6.6878904674056043    0.0038296327019561    0.0650671493668489
   0.1364781559136013    4.7554134789516240   -0.0633316363188381
   0.0830388408796285   -0.0249868963150298    6.6170344866815256
Cs K In O
1 1 2 1
direct
  -0.0546162754961670    0.4904053676182197    0.5473105350653674 Cs
   0.4670162612462727    0.4777596720277749    0.0666633749479911 K
   0.4087077541955046    0.9637152175499466    0.6237211864035066 In
   0.0368217427684411    0.0055852507795082    0.0141278917653514 In
   0.2261315056419362    0.7514584965540860    0.8295139966999018 O
