K1 Ga1 O2
1.0
   6.0000000000006848    0.0000000000000007    0.0000000077598279
   0.0000000000000012    6.0000000000007221    0.0000000146321503
   0.0000000082487990    0.0000000155845716    6.1669524512025289
K Ga O
1 1 2
direct
   0.3333330000016247    0.6666669999986913    0.7344743367184525 K
   0.3333330000095418    0.6666670000186122    0.2561207165721943 Ga
   0.3333329999874051    0.6666669999884364    0.8207150419496758 O
   0.3333330000014285    0.6666669999942573    0.9054369083406899 O
