Cs2 Y2 Se1 O2
1.0
   6.4555577109551692    0.1132883275922933    0.1423698811215960
   0.1132880596810567    6.4555893786056640   -0.1424121315685844
   0.1428089464750301   -0.1428554672773535    5.6924198728011906
Cs Y Se O
2 2 1 2
direct
  -0.0338926492068384    0.0339030548460612    0.6941227490134655 Cs
   0.7033911580658722    0.2965987991701979    0.3075618793484544 Cs
   0.3165388734017971    0.6839799900590988    0.5160357747304671 Y
   0.3326846546405921    0.6668535362134117    0.9544085619391365 Y
   0.2815650319949612    0.7179958453610112    0.1101169958354704 Se
   0.0820511201738024   -0.0820743144313015    0.1525180834183401 O
   0.3176608107424232    0.6827440883270545    0.5558159613848381 O
