Ba2 Cd2
1.0
   6.0000000000000000    0.0000000000000000    0.0000000000000000
   0.0000000000000000    6.7441232223839398    0.0000000070062788
   0.0000000000000000    0.0000000050607299   10.1479949616442617
Ba Cd
2 2
direct
   0.0000000000000000    0.0000000000436723    0.6379420056415174 Ba
   0.0000000000000000    0.5000000001979406    0.3873508672023562 Ba
   0.0000000000000000   -0.0000000000245682    0.0022244139668368 Cd
   0.0000000000000000    0.0000000000205568    0.2809567057903907 Cd
