Li1 Zn1 Ni1 Ge1
1.0
   3.0343013086681920    0.0087236416195453    0.0964354975795211
   0.0087018320259151    3.0340265846652321    0.0964177658900369
  -0.1465912609293530   -0.1466001779946805    5.9668758050841388
Li Zn Ni Ge
1 1 1 1
direct
   0.3732673396203250    0.3732675444953267    0.2543243283788422 Li
  -0.1204749696850387   -0.1204715554536723    0.5217964453742618 Zn
   0.3737871180072346    0.3737856104971958    0.7658072076329265 Ni
  -0.1265794963676515   -0.1265816052974343   -0.0419280171810020 Ge
