Cs1 Na1 Ag1 P1
1.0
   6.9943476888316161    0.2024929236747578    0.1734124781034073
   0.1507189193270484    4.6616432054724335   -0.0559262337305420
   0.1834492750288980   -0.0585577615623314    4.3838452194264068
Cs Na Ag P
1 1 1 1
direct
   0.0426852030121873    0.7308671552137866    0.1908512056951127 Cs
   0.5333502045724433    0.6761115008239866    0.5990728883371337 Na
   0.4676796685672467    0.1838349531856876    0.1353967312597043 Ag
   0.3038609159428987    0.1965153879086252    0.6582211629813320 P
