Cs1 Na1 Sc1 F2
1.0
   3.5555574446604368    0.1021525330606513   -0.2624729701349230
   0.0828369567197827    7.9443927044781057   -1.5531864093047441
  -0.2559375610090148   -1.3468421886981887    6.2387369462393343
Cs Na Sc F
1 1 1 2
direct
  -0.0163514421330940    0.5465693570757666    0.2392238510531334 Cs
  -0.0727403157394532   -0.0683066957349171   -0.0444580406978802 Na
   0.1696005414264259    0.1481311730856145    0.5852440987291243 Sc
   0.1557909297960317    0.1770009233267435   -0.0924092756702040 F
   0.0016442841054000   -0.0601187645211502    0.3223043665886661 F
