Rb1 Al1 Te2 S1
1.0
   5.9999999999999982    0.0000000000000000    0.0000000000000000
   0.0000000000000000    6.0016316885562251    0.0004749017074737
   0.0000000000000000    0.0004747244968406    5.9836276258893228
Rb Al Te S
1 1 2 1
direct
   0.0000000000000000    0.0000007477659024    0.9931018736256483 Rb
   0.0000000000000000    0.4917485388307257    0.2178019185051544 Al
   0.0000000000000000    0.5029765053058870    0.2481924444412582 Te
   0.0000000000000000    0.5026316191559541    0.2482170623221196 Te
   0.0000000000000000    0.5030925896324471    0.1704296973393848 S
