Rb2 Li2 As1
1.0
   5.0585203458799768   -0.0000000154816990   -0.0000010872971164
   0.0000000424037974    5.0290541396691957    0.1537972790019635
  -0.0000007821653927    0.2156586035512168    7.0802422495535069
Rb Li As
2 2 1
direct
  -0.0000000137941888    0.5161793013442844    0.2508670644667686 Rb
   0.5000000110321197    0.0204428842290590    0.5478463132854765 Rb
   0.0000000061861463    0.0431811988407120    0.9362677533643707 Li
   0.4999999989185546    0.4801838344647109   -0.0554065793587142 Li
   0.4999999982673068   -0.0098472125424104    1.0457424448689212 As
