Cs1 Rb1 Al1 Bi1 As1
1.0
   4.5560049144559098    0.0000000040207378    0.0000000793505873
   0.0000000040207358    4.5560049155540705    0.0000000712691599
   0.0000000254747815    0.0000000205347297    9.7446425284608793
Cs Rb Al Bi As
1 1 1 1 1
direct
  -0.0000000014712260   -0.0000000009773934    0.3896727759492475 Cs
   0.4999999900778553    0.4999999903549531    0.7262950152266848 Rb
  -0.0000000048565119   -0.0000000061496807    1.0176635111337287 Al
   0.5000000112294796    0.5000000111033651    0.1119304845047533 Bi
   0.0000000053758364    0.0000000054541798    0.7744581713996999 As
