Na1 Si2 Rh1
1.0
   6.0000000000000000    0.0000000000000000    0.0000000000000000
   0.0000000000000000    4.1056475100217042   -0.0000036079952392
   0.0000000000000000    0.0000121633691404    6.6980516241530665
Na Si Rh
1 2 1
direct
   0.0000000000000000    0.5000020639191811   -0.2057653504945983 Na
   0.0000000000000000    0.4999995945386267    0.3104890169425876 Si
   0.0000000000000000   -0.0000015713720804    1.1224877693050099 Si
   0.0000000000000000   -0.0000001013350636    0.4745565622446792 Rh
