K2 Li2 As1
1.0
   4.8586661804884077   -0.0000018251648350   -0.0000013398502759
  -0.0000019395459312    4.7457580052006936   -0.4148581072424651
  -0.0000012049765746   -0.4374856038641672    7.2569168896900180
K Li As
2 2 1
direct
  -0.0000000286097319   -0.0728391942544875    0.2474344389798445 K
   0.5000002718571108    0.4767223487308562    0.6200895832299849 K
   0.0000000238402659    0.0874534013838965    0.8425844148188626 Li
   0.4999997583776694    0.5144641403592694    1.0635400900320218 Li
   0.4999999799339213    0.0102483006412742    0.9494125005703111 As
