Cs1 Y1 In1 O2
1.0
   5.7475961137335059   -0.0114935791571216    0.3351828952413154
  -0.0114954652331970    5.7473141531897056   -0.3351126817077295
   0.2874976358207874   -0.2874545546959389    6.4993800893398097
Cs Y In O
1 1 1 2
direct
   0.5066719275404663    0.4933208758798352    0.8069399623996605 Cs
   0.0610553662106534   -0.0610461747120569    0.3667448691283633 Y
   0.0222596498339616   -0.0222667032119179   -0.1244846818730968 In
   0.2058190296530100    0.7941821938988369    0.0921867318382615 O
   0.2041930285043042    0.7958107996914203    0.5913331091674625 O
