Rb1 Y1 Sc1 S2
1.0
   3.5360525971172407    0.1384515676938098   -1.0375925371864336
   0.1384496978428493    3.5360523545556628    1.0375933953736480
  -0.8143021458402879    0.8143026356998426   10.8533422954464243
Rb Y Sc S
1 1 1 2
direct
   0.5536986471727933    0.4463018080976736    0.7488878410241917 Rb
   0.0094777267582777   -0.0094777210313563    0.1266997216798854 Y
  -0.2526600557305831    0.2526597332178558    0.3634539128677628 Sc
   0.3909979555449445    0.6090023228839390    0.0178573374320733 S
   0.2984847454500851    0.7015148472355989    0.4141152095731593 S
