Rb1 Na1 Sc1 F2
1.0
   3.6190259714767223    0.1343127128205299   -0.1300585408309694
   0.1628595869270281    7.1531257723508963   -1.4732006673730482
  -0.1695967198498058   -1.2188522989835442    6.3387834370744356
Rb Na Sc F
1 1 1 2
direct
   0.0081933949865653    0.5479357452236703    0.2531769521767068 Rb
  -0.1019055533601472   -0.0943670832018528   -0.0657578340913089 Na
   0.1633739508394272    0.1410053039245465    0.5977153126877950 Sc
   0.1355359504601688    0.1860666586958898   -0.0841551612664777 F
   0.0232152469904784   -0.0373666161106926    0.2992897428727868 F
