Ca1 Al2 Au1
1.0
   6.0000000000000000    0.0000000000000000    0.0000000000000000
   0.0000000000000000    5.0184889505254695   -0.0000000008328996
   0.0000000000000000   -0.0000000007399031    5.7228438884092814
Ca Al Au
1 2 1
direct
   0.0000000000000000    0.0000000002522580    0.7106198931771739 Ca
   0.0000000000000000    0.4999999999959259    0.3381973268338749 Al
   0.0000000000000000   -0.0000000003210313    0.6511225456592128 Al
   0.0000000000000000    0.0000000000865450    0.2127652378714178 Au
