Ba2 Te3 S1
1.0
   6.2790046609789556    0.5281919068753407   -0.2411048221216435
   0.4171846012958377    6.7959077666084120    0.4547776809886666
  -0.2394778622220420    0.4648858527324121    5.9901913451380135
Ba Te S
2 3 1
direct
   0.0052733434053393   -0.0797004154139785    0.9106417500365206 Ba
   0.4584971225697280    0.2082714903098814    0.3573552479238415 Ba
   0.2013683984821304    0.4117247647423911    0.8066449996905583 Te
   0.5397238298636403    0.7315091819602797    0.1525823156344914 Te
  -0.0894659102315321    0.4218255922753693    0.1555412065727361 Te
  -0.0199507912757087    0.0568923930290744    0.3896924753564946 S
