Ti1 Be1 Nb1 Ir1
1.0
   2.9543152771046288    0.0179798498357050    0.0001484513032180
   0.0179801633668825    2.9543189285676563    0.0001449538050426
   0.0247363917404797    0.0247366619649343    6.7126287244698188
Ti Be Nb Ir
1 1 1 1
direct
  -0.1268318959706947   -0.1268317759462777    0.5143539613929685 Ti
   0.3806173925823969    0.3806174666546633    0.7392185349107253 Be
  -0.1291961894411046   -0.1291953396211019   -0.0226218605215034 Nb
   0.3754106838967052    0.3754096499677384    0.2690493498513794 Ir
