Li1 Bi1 Te1 O1
1.0
   6.0000000000000000    0.0000000000000000    0.0000000000000000
   0.0000000000000000    3.7160509075439720    0.0257245208290276
   0.0000000000000000    0.0174800781553489    7.9484655627346381
Li Bi Te O
1 1 1 1
direct
   0.0000000000000000   -0.0000971941350052    0.6336376972690839 Li
   0.0000000000000000    0.4965005879534670    0.0181048062909880 Bi
   0.0000000000000000    0.5037984861493494    0.3914432267521131 Te
   0.0000000000000000   -0.0002018821840003    0.8697142858993745 O
