Rb1 Na1 Ca1 F1
1.0
   6.0000000000000000    0.0000000000000000    0.0000000000000000
   0.0000000000000000    6.4717754710358948    0.0000000016277411
   0.0000000000000000    0.0000000017728824    8.3106020671729741
Rb Na Ca F
1 1 1 1
direct
   0.0000000000000000    0.5000000000716633    0.2756806153704804 Rb
   0.0000000000000000    0.0000000004137214    0.5211171925120568 Na
   0.0000000000000000    0.0000000007115757   -0.0029962619948515 Ca
   0.0000000000000000   -0.0000000007090716    0.2411514539694407 F
