Rb1 Au2 S1
1.0
   6.0000000000000000    0.0000000000000000    0.0000000000000000
   0.0000000000000000    6.3064629637116960   -0.0000000050856214
   0.0000000000000000   -0.0000000044452596    7.1347869676657831
Rb Au S
1 2 1
direct
   0.0000000000000000    0.0000000008576046    0.3251470188918035 Rb
   0.0000000000000000    0.4999999995425370    0.0605896615567359 Au
   0.0000000000000000    0.5000000000218774    0.4282138591708932 Au
   0.0000000000000000    0.5000000013748174    0.7450124573921812 S
