Cs1 K1 Mg1 Bi1 Te1 S1
1.0
   6.4512881642783961   -0.0000000015010046   -0.0000000611900681
  -0.0000000015068430    5.9090404583581302   -0.0000000058885397
  -0.0000000728229573   -0.0000000053789915    5.4316411000374112
Cs K Mg Bi Te S
1 1 1 1 1 1
direct
   0.4999999829829087    0.4999999998222095    0.6848230042682951 Cs
  -0.0000000019883323    0.0000000005132216    0.1935073566413193 K
   0.0000000651418618    0.5000000003723793    0.9942472626543036 Mg
   0.4999999906039999   -0.0000000001307749    0.1539564586032147 Bi
  -0.0000000452396241    0.5000000000910343    0.4917884171852511 Te
   0.0000000049833976    0.0000000003597927    0.1607694916456247 S
