K1 Mg2 P1 Au1
1.0
   4.3724478162817073   -1.0213156327431063    0.0641870274743516
  -1.0535029203618351    7.7079648965190160    0.9039282606105064
   0.0930972548905185    0.8055851336664721    4.3377094913322631
K Mg P Au
1 2 1 1
direct
   0.2019983453802156    0.7052646646759901   -0.0956613357977550 K
  -0.0181823133509925    0.1531874694303914    0.6528364254666758 Mg
   0.4838405467585837    0.1487044084272847    0.1517509548461556 Mg
  -0.1310322876574888   -0.0390769581203191    0.2517751172557774 P
   0.6156257104683558    0.3706924228367132    0.5392988214950535 Au
