Cs1 Na1 Ag1 Bi1 As1
1.0
   5.1663703559157224   -0.1666742963109913    0.2394128088768648
  -0.1302636285196924    7.9414549775866226   -0.9644099305508742
   0.1843364791298374   -0.8581278971127646    4.8691140418655454
Cs Na Ag Bi As
1 1 1 1 1
direct
   0.3556210123024242    0.3600028831322668   -0.0524326129072316 Cs
  -0.0081429822007763    0.7650121568005734    0.6228077251378840 Na
   0.3759164665235735   -0.1171782670799281    1.1004484060642312 Ag
  -0.1276695071792684    0.0618191870785056    0.2732020630099864 Bi
   0.5281480064026575   -0.0696559679469739    0.6091884251907130 As
