Cs1 Rb1 Li2 Bi1 Sb1
1.0
   5.1641384015935836    0.0000000331492565    0.0000000254964236
   0.0000000228238123    7.2153675972813467    0.0861129562470956
   0.0000000199244683    0.0851372067426208    6.4317669281260024
Cs Rb Li Bi Sb
1 1 2 1 1
direct
   0.4999999995919610    0.5444919766018724    0.6231021652425603 Cs
  -0.0000000003884444   -0.0311488834631315    0.3683325889274931 Rb
   0.0000000006368452    0.1485028923973323    0.8531003435559452 Li
   0.5000000102249811    0.3239176650213389    0.1480643188005265 Li
  -0.0000000002627014    0.4742930827102806    0.1059591257468619 Bi
   0.4999999894609804    0.0333672727682272    0.8870634626901236 Sb
