Ba3 Te2 S1
1.0
   6.3414131473729061   -0.0000000003936279   -0.0000000067130780
  -0.0000000004233265    6.0234632625401572   -0.0000000027952364
  -0.0000000066789900   -0.0000000027557816    6.4294410820060452
Ba Te S
3 2 1
direct
  -0.0000000002020402    0.0000000000041452    0.3452255650751472 Ba
   0.5000000003502172    0.5000000000469611    0.7023620252143637 Ba
   0.0000000000293099    0.5000000000204353    0.2913906022532117 Ba
   0.4999999999981395    0.5000000000125236    0.1987845205903049 Te
  -0.0000000000052628   -0.0000000000942659    0.5264189311476426 Te
  -0.0000000002921383    0.0000000000565520    0.2816013505284178 S
