Ba3 Te2
1.0
   5.6169015522387067    0.0000000477518117   -0.0972150176197282
   0.0000000485362459    5.8088853638113758    0.0000000705428861
  -0.0909535855409414    0.0000000728668004    6.1717309591066547
Ba Te
3 2
direct
   0.0696947662924990    0.2500000027642132    0.9633289071641490 Ba
   0.5723516027402867    0.2500000036011437    0.3685514346082411 Ba
   0.1724280087687947    0.7499999889890947    0.6752657366895469 Ba
   0.1050584793965931    0.7500000023994389    0.1904876692555173 Te
   0.1752111436030709    0.7500000025960892    0.1869502512987303 Te
