Cs1 Au2 Br2
1.0
   6.0057299999517131    0.0446326716251559   -0.2445003733638700
   0.0518411413210085    7.0590929540791265   -0.1379752850091132
  -0.2122000022566096   -0.1112746937774133    7.8007743164509753
Cs Au Br
1 2 2
direct
  -0.0210507082107352    0.4881290995243130    0.2604070439353895 Cs
   0.0007065142603525    0.0045837616909432   -0.0525949751037044 Au
  -0.0000001616752428    0.0001854207212266    0.6100830436001895 Au
   0.2905710600567309    0.2473880678596088   -0.0779122747908826 Br
  -0.0416747052860381   -0.0117303507343866    0.2955841588440686 Br
