Rb1 Na1 Ca1 F2
1.0
   3.2638013108049506    0.4112205159603358    1.3547573354417000
   0.1758605161292188    6.8034775558614928    2.0058934408656790
   0.9936580162285451    1.7205318915401362    6.8782150645996420
Rb Na Ca F
1 1 1 2
direct
  -0.2611597227159578    0.5534459775628421    0.2447038647165502 Rb
   0.1506203478709016   -0.0828098122913239    0.5219407039857049 Na
   0.2552376224034130    0.1811784285798537   -0.1119388943039184 Ca
   0.0221142111635270    0.2522493535858948    0.6130480397606787 F
   0.0401225503951286   -0.1116249155722160    0.2323352806777859 F
