V2 W1 O1
1.0
   4.8999762539777745    0.0884342120388861   -0.2140397664690993
   0.0931352816419215    4.3115130311177037   -0.2321840223896686
  -0.1823700159375561   -0.1003070614470059    2.9817482652285983
V W O
2 1 1
direct
   0.2420048016065120    0.4965823781633119   -0.0540588998382675 V
  -0.2606867310177420    0.5119821083008997    0.5023359036329043 V
   0.2354121583490958    0.0145613346960685    0.3987547800214861 W
  -0.0998842670737382    0.7860731779740842    0.0779262337587986 O
