Ba3 Te2 S1
1.0
   6.0253992379737751    0.0276657748333473    0.1434362653133607
   0.0278136085583625    6.0114201054920580   -0.0029429155133409
   0.1430504203642189   -0.0031562257545941    6.1329930937101826
Ba Te S
3 2 1
direct
   0.2426282077921978    0.4970478896412932    0.3254144881785492 Ba
   0.0550009998539954   -0.0014814711829376    0.7472100738254471 Ba
   0.0112403787195837    0.0015533904069334    0.7498398283506371 Ba
   0.5087133907234599    0.2467819421331605    0.7481838098125552 Te
  -0.0588145870356217    0.5083207240412357   -0.0837536732050581 Te
   0.4779656110362959   -0.0049594748780921    0.2615884763074992 S
