Ba2 Te1 S2
1.0
   5.9999999999999982    0.0000000000000000    0.0000000000000000
   0.0000000000000000    6.3719018255061997   -0.0799612433004853
   0.0000000000000000   -0.0820089841769270    6.7016850811632720
Ba Te S
2 1 2
direct
   0.0000000000000000    0.5153946915279537    0.1474623485008580 Ba
   0.0000000000000000    0.4917015088007595    0.1778009101452183 Ba
   0.0000000000000000    0.5304501972269048    0.6321360623749712 Te
   0.0000000000000000   -0.0394017903355438    0.0431502311305325 S
   0.0000000000000000    0.1923643924095621    0.8344124535484737 S
