Sr1 Si2 Pt1
1.0
   6.0000000000000000    0.0000000000000000    0.0000000000000000
   0.0000000000000000    4.1852450484064301   -0.0000333024930467
   0.0000000000000000    0.0000184557341207    6.9022097729038121
Sr Si Pt
1 2 1
direct
   0.0000000000000000    0.5000024424730318    0.0768966616099688 Sr
   0.0000000000000000    0.4999988181939887    0.5652695322188227 Si
   0.0000000000000000    0.0000005018735381    0.7400482080988344 Si
   0.0000000000000000   -0.0000017571581607    0.3902265678715018 Pt
