Sr1 Si2 Rh1
1.0
   6.0000000000000000    0.0000000000000000    0.0000000000000000
   0.0000000000000000    5.0498552899710791    0.0000207937740017
   0.0000000000000000    0.0000204774147218    5.9138789983252860
Sr Si Rh
1 2 1
direct
   0.0000000000000000   -0.0000041371583995    0.8878971588269277 Sr
   0.0000000000000000    0.5000060245532371    0.1779394230174119 Si
   0.0000000000000000   -0.0000034083259414    0.9442086472140613 Si
   0.0000000000000000    0.0000015204001294    0.2884257658622726 Rh
