Rb1 Al1 F2
1.0
   5.7588617253939258    0.1714933238215986   -0.0745507950755896
   0.1802380167634798    5.2887684075759731   -0.0114629886752451
  -0.0707147915880862   -0.0118181593311589    5.3388174911739696
Rb Al F
1 1 2
direct
   0.0803668667818264    0.4696624824959683    0.4824710700665886 Rb
  -0.0273464134868740   -0.0045268977250850   -0.0209121292047184 Al
   0.1451254233073823    0.2647052578295313   -0.0247620962977637 F
   0.0038841209569107   -0.0277998423714660    0.3108421588387435 F
