Rb1 Y1 Sc1 S1 O1
1.0
   5.9522195443957404    0.0475880955736605    0.0410833808275238
   0.0475880506312988    5.9522252734240819   -0.0410724289520126
   0.0396075960216270   -0.0395969324575135    7.2182767505628016
Rb Y Sc S O
1 1 1 1 1
direct
   0.3339329281621383    0.6660689284149844    0.6075330156586036 Rb
   0.3144103616925419    0.6855810691985247   -0.0248586545164237 Y
   0.3367525109921686    0.6632505919450159    0.2663544454989000 Sc
   0.0152201828826411   -0.0152196702318897    0.3333177774589166 S
   0.3330160156836663    0.6669870823090382    0.2942574156192363 O
