Rb2 Li3 Sb1
1.0
   4.8459438714689185    0.0000000296612005    0.0000003133989159
   0.0000000221261700    6.1151135613342422    0.2363075839253315
   0.0000002061736382    0.2130404312621392    7.1334830336797710
Rb Li Sb
2 3 1
direct
  -0.0000000508559159   -0.0272971748176028    0.5024111529507621 Rb
   0.5000000775353755    0.5035844488085872    0.3052904217318196 Rb
   0.0000001296923158   -0.1712235887038887    0.9586474435469218 Li
   0.4999999919211520    0.1170424544206769    0.8911845045053980 Li
  -0.0000000039816199    0.4280019885119163    0.8018395604537333 Li
   0.4999998570438769    0.6469819011546825    0.8121348987900023 Sb
