Cs1 Rb1 Sc1 S3
1.0
   4.3790993948211216    0.0000659655085731   -0.0337540948360247
   0.0000778330789372    4.7406135273659142    0.0001996080095080
  -0.0197267478173648    0.0004082957098634    7.1231304060849698
Cs Rb Sc S
1 1 1 3
direct
   0.5080534893339045    0.4999695681319656    0.7825101683413879 Cs
   0.0012024185325941    0.0001388472704944    0.4801592858792902 Rb
   0.4961647793687570   -0.0000636466072384    0.1778165155188552 Sc
  -0.0047774802743898   -0.0001046393932282   -0.0035227312484187 S
   0.0008337631092338    0.0001248454495746    0.4590567363787220 S
   0.4985230289702873    0.4999350271013296    0.3027160357696898 S
