K2 Li2 Bi1
1.0
   5.0594764426425751   -0.0000002253246586   -0.0000002301840810
  -0.0000002452618842    5.1721841461959670   -0.2895178506835412
  -0.0000001286006016   -0.3449494908972711    7.4926644996013483
K Li Bi
2 2 1
direct
  -0.0000000475465346    0.0243601360606274    0.3374581503589971 K
   0.5000000605460230    0.5649704271305999    0.6471819734416853 K
  -0.0000000765767336    0.3931423505700198   -0.0175964731793712 Li
   0.4999999337154599    0.0111787706773369    1.0114001545012115 Li
   0.5000001269711483    0.5214743142275586    0.1573301936239399 Bi
