Li1 Cu1 Ag1 Pb1
1.0
   3.4146799825507661    0.0448252824900792   -0.0084098877009943
   0.0448242336608646    3.4146736953559147   -0.0084055911174618
   0.0486298973549854    0.0486314412338312    6.1730024429363715
Li Cu Ag Pb
1 1 1 1
direct
   0.3711117152864725    0.3711119972684622    0.2808589388372045 Li
   0.3652946187263569    0.3652943367227846    0.7172498851802848 Cu
  -0.1292173639228472   -0.1292169846312427    0.5134178828889652 Ag
  -0.1071889615213506   -0.1071893443704665   -0.0115267203779123 Pb
