K1 Ba1 Te1 S3
1.0
   4.9505167746553802   -0.0000000295187861    0.0000123279303022
  -0.0000000314754135    5.3909388966117131    0.0000014654454440
   0.0000116241682638    0.0000014648587430    5.3903173087331728
K Ba Te S
1 1 1 3
direct
   0.0000023228894923    0.5000005231789486    0.0253472101004746 K
   0.5000013476255508    0.4999970594196730    0.4744072996522756 Ba
   0.0000039740103339   -0.0000023294171303    0.5141399836441036 Te
  -0.0000396133369797    0.0000006886832644   -0.0224962071488672 S
   0.5000336648899579    0.0000002534210736    0.0516288335998113 S
   0.4999983051310331    0.5000037989486278    0.5002459000171323 S
