Cs1 Rb1 Li2 Bi1 Sb1
1.0
   5.2984610161904140   -0.0000002233038201    0.0000012794356401
  -0.0000001328704083    6.0815997625273930   -0.5430427411764700
   0.0000009057489414   -0.5630778791952822    7.7231473439014469
Cs Rb Li Bi Sb
1 1 2 1 1
direct
   0.4999999809589581    0.5229261522310734    0.5501684070978317 Cs
  -0.0000000922449767    0.0159573640598018    0.4623111404714188 Rb
  -0.0000000031928088    0.0445088594564411   -0.0380489637876539 Li
   0.5000000134952178    0.4262224309792768    1.0543254025236448 Li
   0.5000001336607475   -0.0661962134903949    0.1404652624603262 Bi
   0.4999999684547815    0.0699084010933451    0.7933867593136719 Sb
