Rb3 Te2 S1
1.0
   6.0000000000000018    0.0000000000000000    0.0000000000000000
   0.0000000000000000    6.5107270237784149    0.0000322417069828
   0.0000000000000000    0.0000356774995623    6.4388013498687151
Rb Te S
3 2 1
direct
   0.0000000000000000   -0.0047032312898348    0.2159096810544271 Rb
   0.0000000000000000    0.4997337870123786    0.2338828872246966 Rb
   0.0000000000000000    0.4997313958179215    0.2338926622488421 Rb
   0.0000000000000000    0.5012196297172737    0.7335271370498485 Te
   0.0000000000000000   -0.0004245373303530    0.6195682338875914 Te
   0.0000000000000000    0.0044429572588963    0.2192774057091437 S
