Rb2 Li2 Bi1 Sb1
1.0
   5.0174227421215614    0.0000003287133451   -0.0000007253868465
   0.0000002675069407    7.7152669760472143    0.1529132203276443
  -0.0000005901628095    0.1675031822497957    5.4012467055983064
Rb Li Bi Sb
2 2 1 1
direct
   0.0000000179348176   -0.0845093543204615    0.6921535739757090 Rb
   0.5000000559934386    0.6178217021175786    0.1804291828839105 Rb
  -0.0000000753142259    0.2902452909891566    0.2615947414560499 Li
   0.4999999581328564    0.2667008928033491    0.6348592063612808 Li
   0.5000001675573446    0.1214548839966402    0.1318866696156262 Bi
  -0.0000001212735656    0.4015705806649078    0.7657796301208551 Sb
