Rb1 Zr1 Ag1 Se2 S1
1.0
   6.0340372757461100   -0.0000000170591883    0.0073146541800695
  -0.0000000171899767    6.3918631231106904   -0.0000000019990178
   0.0086280098752964   -0.0000000011610555    6.6260638053305083
Rb Zr Ag Se S
1 1 1 2 1
direct
   0.0207236357225374    0.2499999975996523    0.8303544955323715 Rb
   0.1288288891768622    0.7500000244319405    0.5305795687275738 Zr
   0.1164710318700420    0.2499999932682985    0.2897808426470043 Ag
   0.2088392003082983    0.7500000051254483    1.0119823618492654 Se
   0.2328865373576305    0.2499999907833056    0.2319753582762298 Se
  -0.0023322976193882    0.7499999885840323    0.5114323780607025 S
