Ba2 Si1 O1
1.0
   4.9522169474177318    0.1682085573902798   -0.0207255736590561
   0.1119112862210068    6.3867962970372787    0.0741367754862787
  -0.0370727209935264    0.0880829944429233    4.5938195422270098
Ba Si O
2 1 1
direct
   0.3370630223098967    0.7406743789788427    0.5386196804181916 Ba
  -0.0304638495696040    0.1926588113615256    0.0088384556084735 Ba
  -0.1645154715718977    0.6928558702949734    1.0450026981838803 Si
   0.1834512947425995    0.1238109470835213    0.5210671503223243 O
