K2 Li2 Bi1 P1
1.0
   4.7467128299491952   -0.0000000162563635    0.0000003497936700
  -0.0000000187998023    5.1827723307479125    0.0580011349660076
   0.0000002498117391    0.0815387863910828    7.2131961147702714
K Li Bi P
2 2 1 1
direct
   0.5000000025236901    0.4638850347036153    0.4256582906882830 K
   0.0000000015389951   -0.0620511084751730    0.7152854673422619 K
   0.0000000100176648    0.4513661216446947    1.0251426077611172 Li
   0.4999999228567221    0.1244509866484864    0.0159314749156417 Li
   0.0000000372586239   -0.0646527410402484    0.2074041972357556 Bi
   0.5000000262823572    0.6257837132038786   -0.0239000159846468 P
