Cs1 Na1 Ag1 As1
1.0
   4.2663020456970502    0.0000023649459441   -0.0000002252961322
   0.0000016510732217    6.3116355792940766    0.4181593394757109
  -0.0000002292950303    0.3619892312879996    6.6470599417921692
Cs Na Ag As
1 1 1 1
direct
  -0.0000000003394456   -0.0050489916648214    0.9217283941883310 Cs
   0.0000003044486157    0.3783291948720835    0.3541161260936277 Na
  -0.0000000688650036   -0.1698652927088509    0.4480954242694796 Ag
   0.4999997655083858    0.0465850987519545    0.4085780547783850 As
