Ba2 Ca1 P1
1.0
   4.9352633771400143   -0.0000000771423904   -0.0000026395768799
  -0.0000000771422682    4.9352641417586334   -0.0000050768194702
  -0.0000014741026003   -0.0000027676280348    9.9485644344030764
Ba Ca P
2 1 1
direct
  -0.0000000371029469    0.0000000048699906    0.7902985028687030 Ba
   0.4999997277812829    0.4999995746406253    0.5077225248059776 Ba
   0.5000001834998190    0.5000003095853571    0.9702917183701830 Ca
   0.5000001254341128    0.5000001113617633    0.2259142571627421 P
