Ba1 Si2 Pt1
1.0
   6.0000000000000000    0.0000000000000000    0.0000000000000000
   0.0000000000000000    4.1181117131325156   -0.0000001360651644
   0.0000000000000000    0.0000007121478293    8.5054443766562713
Ba Si Pt
1 2 1
direct
   0.0000000000000000    0.0000000518865504    0.6602736186670934 Ba
   0.0000000000000000    0.4999999550058246    0.1887675430040662 Si
   0.0000000000000000    0.0000001059222379    1.0310672958248959 Si
   0.0000000000000000   -0.0000001136053356    0.3216155502431218 Pt
