Rb1 Te2 O1
1.0
   5.8321979454579456   -0.2351407037862075    0.2100707359459090
  -0.2122904949398038    5.1600522752781490    0.4353337216550962
   0.2139279794406899    0.4590491852839168    7.7526418092935909
Rb Te O
1 2 1
direct
  -0.0095935769433064    0.1026573338715601   -0.0253988299449160 Rb
   0.0750908743377388    0.5364190546877996    0.3362331501934533 Te
  -0.0042171689987865   -0.0087689096606618    0.5154489853021510 Te
   0.0675178704058252    0.5857145188051635    0.0906916919267773 O
