Cs1 Au2 I2
1.0
   5.7903506684318096   -0.1235839065986580   -0.6084833552960409
  -0.1005502004895966    7.5147667892557424    0.0873125261785224
  -0.4605140537856966    0.1452595816065830    7.2625770982419722
Cs Au I
1 2 2
direct
  -0.0498200335148353    0.4440835784231714    0.1943642102472597 Cs
  -0.0039497224869288   -0.0068687761379199   -0.0145829315849044 Au
   0.0432522943759918    0.1176713433097754    0.6296712194548046 Au
   0.3620596699149392    0.2425752616048254   -0.0963207533578952 I
  -0.1224132055872165   -0.0682724011918876    0.3246332381291062 I
