Rb1 Mg1 Sc1 S2
1.0
   3.7604054452461768   -0.2714690333144921    0.4444110524531953
  -0.2714693097756120    3.7604007349778068   -0.4444123802904031
   0.1900717944755241   -0.1900793358614074    8.6396433803862216
Rb Mg Sc S
1 1 1 2
direct
  -0.0615616492824963    0.0615631141954470    0.0485890277685794 Rb
   0.1664515545025279    0.8335471007760291    0.6701079369395699 Mg
   0.6965449800577542    0.3034549877809720    0.4591966288547340 Sc
   0.3040084223185798    0.6959918097120066    0.3532336539375965 S
   0.5612226885303107    0.4387769890076950   -0.2376882580750936 S
