K2 Sc1 S1
1.0
   5.9166682070078505    0.0718431965169677   -0.0030944201704627
   0.0718431403640451    5.9166723144048552    0.0030944345409233
  -0.0033505805835635    0.0033505914249066    6.1448272863461835
K Sc S
2 1 1
direct
  -0.0229317553717527    0.0229317825158443    0.7665558369444063 K
   0.3364475492919957    0.6635524220464083    0.2818199097042852 K
   0.3117421078416104    0.6882579725816957    0.2504494078865043 Sc
   0.0414080987015565   -0.0414081765320298    0.2712248510315909 S
