Rb1 Na1 Sc1 S2
1.0
   4.6017977634181459   -0.0000000245621216    0.0000000123718562
  -0.0000000164982560    7.1334790151179082    0.0282294092065872
   0.0000000139526447    0.1593337844342745    3.9156331711634333
Rb Na Sc S
1 1 1 2
direct
   0.0000000011824696    0.6196986037638242    0.1317260562023247 Rb
   0.5000000011622817    0.3207608717965130    0.0923486794514046 Na
  -0.0000000013788931   -0.0804671755923261    0.5090015742880496 Sc
   0.0000000017701266    0.6320591269999469    0.1425602725612047 S
  -0.0000000020983759    0.1341405707446225    0.0007934116494617 S
