Rb2 Sc1 S2
1.0
   5.9999999999999982    0.0000000000000000    0.0000000000000000
   0.0000000000000000    4.1450010443067828    0.0000193974104076
   0.0000000000000000    0.0000101606772453    7.8404299742428449
Rb Sc S
2 1 2
direct
   0.0000000000000000   -0.0000032804008919   -0.0261113593479762 Rb
   0.0000000000000000    0.4999916725100996    0.0025905047895687 Rb
   0.0000000000000000    0.0000004114971217    0.6036350448812364 Sc
   0.0000000000000000    0.5000112871063382    0.0527921692696169 S
   0.0000000000000000   -0.0000000923246744    0.3291296447067382 S
