K2 Sc1 S1 O1
1.0
   5.7381741346793707    0.0162340027971388    0.1385090736132174
   0.0162340045573978    5.7381746621962968   -0.1385090875079861
   0.1355104793771351   -0.1355104902450621    6.1550072873816637
K Sc S O
2 1 1 1
direct
  -0.0031877366101497    0.0031877281188599   -0.0992618177549128 K
   0.6583457862090624    0.3416542151060658    0.4934903940832205 K
   0.3126660777663782    0.6873339290816926    0.1978056071376607 Sc
   0.0488089409049539   -0.0488089454142160    0.4050759966967408 S
   0.3166999313042126    0.6833000739059799    0.2045878218019680 O
