Ba1 Sr1 B1 O1
1.0
   5.9933987678455667    0.0099903221239134   -0.0421497671032721
   0.0017839937561019    3.5313183845734564    0.0541238017483822
  -0.0284408719974786    0.1305540040861818    9.0786474681164613
Ba Sr B O
1 1 1 1
direct
   0.0104400218229220    0.0430588095103385    0.5908803651723213 Ba
   0.0156982602501606    0.0113470208649396   -0.0203425908772570 Sr
  -0.0029653266644273   -0.0100985552658073    0.2761523097609089 B
   0.0120090449735177    0.5272517198190888    0.7999279331337363 O
