Rb1 Te1 S1 O1
1.0
   5.7396386392814671    0.2228376533068099    0.0716932737345279
   0.1747438415314931    5.7068558954022928    0.8598071194353676
   0.1649459305887147    0.7710285984769459    4.2812344847729467
Rb Te S O
1 1 1 1
direct
  -0.0502212545679199    0.2792226371456799    0.7094234480670264 Rb
   0.3868563582966043    0.8187948352708382    0.3650431742464700 Te
   0.3457246555968245    0.5764254215108339    0.0230556599669698 S
   0.0941192324164603   -0.0077758988743728    0.3212497084441484 O
