K1 Ba1 Te1 S1
1.0
   4.3901351615982858    0.0018466663710351    0.0005427954176661
   0.0018574912988221    4.3550244443144601    0.0436172180414283
   0.0004006135733021    0.0178061539254296    5.7543036048471299
K Ba Te S
1 1 1 1
direct
  -0.0000014330649103    0.1944000041913372    0.7735313192299863 K
   0.4996848492104523    0.5323808389131508    0.2456217801061738 Ba
   0.4998463846736589    0.5328963384226395    0.2456932144970536 Te
   0.0004701994162395   -0.0605941813558762    0.3085876868568317 S
