Cs1 Rb1 Sc1 S2 O3
1.0
   5.9410099409556949   -0.0155120123590023   -0.0235846729934961
  -0.0155120122096909    5.9410100194487105    0.0235847006738928
  -0.0232751238073724    0.0232751503220848    6.2372138118415270
Cs Rb Sc S O
1 1 1 2 3
direct
   0.6909743411853447    0.3090256363291488   -0.1077303027141613 Cs
   0.3223681158583749    0.6776319423354535    0.5005965765563477 Rb
   0.7034311604884357    0.2965687757007409    0.3463387572012391 Sc
  -0.0250571475214867    0.0250571445042694    0.3743145741944656 S
   0.3305750198096861    0.6694261563870170    0.9630485870239451 S
   0.0000963645904201   -0.0000963631879899    0.1367037496465057 O
  -0.0282554334069029    0.0282554309577888    0.3996655831527611 O
   0.3392005787759572    0.6607982752896210    0.9509714737200369 O
