Ba2 Cd1 Sb1 As1
1.0
   6.3660685247634818    0.2511999656568022    0.2223830611769261
   0.3164986842703233    4.8546664827032373    0.5611633786295923
   0.2706783380171115    0.4994233330848447    6.3935316447967523
Ba Cd Sb As
2 1 1 1
direct
   0.5278129262433788    0.5979816274237519    0.1202682852412406 Ba
   0.0127591336789299    0.8010577421855801    0.6012899755679826 Ba
   0.1353166370439066    0.2001239463438498    0.0006379515674890 Cd
   0.4778207937920155    0.2148790980299817    0.6778099328126145 Sb
   0.0167795057972171    0.6859575759852852    1.1247438852561009 As
