Ca1 Sc1 O2
1.0
   5.2380472749779230    0.1693126668489228    0.0000001006857146
   0.1617262846949404    4.0291726231144285    0.0000007731145900
   0.0000001826186159    0.0000008222832786    3.9528511431563471
Ca Sc O
1 1 2
direct
  -0.0734481170066633    0.4580331327899542    0.5000000257225385 Ca
   0.2569769645509729   -0.0744320663041002    0.0000000253638007 Sc
   0.1443610881802145    0.4309926827383360   -0.0000000518224385 O
   0.1349550665591805   -0.0645937427480589    0.5000000060578644 O
