Na2 Ag1 Bi1 Sb1
1.0
   4.9595179657036557    0.0223437003638345   -0.4920974119726408
   0.0407830835873285    5.9455262372532403    0.2864028558259866
  -0.4778286186416027    0.2646987132972896    5.7192262300776804
Na Ag Bi Sb
2 1 1 1
direct
  -0.0115858245189939    0.4784245034838845    0.7310199871464212 Na
   0.5038430260229834    0.0432667562147422    0.4391988610322602 Na
   0.3747941460786342   -0.0393730066456029    0.9068200224692978 Ag
  -0.0699808644384546   -0.1526528665019046    0.1358347042513779 Bi
   0.4543925110617041    0.5413706079859277    0.1924954355719384 Sb
