Ba2 Ge1 As1
1.0
   5.0019096564868786   -0.3817424469550039    0.1190575302461944
  -0.4374719145335414    6.6898879440868635    0.8850585329863753
  -0.0761058928925595    1.0135321531833601    4.4691982306096270
Ba Ge As
2 1 1
direct
   0.1050431547507851    0.6628621464525002    0.7826027730377981 Ba
   0.5250807088293765    0.1969307685441019    0.3997312926498827 Ba
   0.6606318639658891   -0.2241533128142352    0.2205849720214008 Ge
  -0.0186767203826916    0.0994534065245308    0.9477929689179300 As
