Rb1 Li1 Be1 O1
1.0
   5.0754699137173658    0.0798840834866925    0.1438013207744849
   0.1247915776552021    7.5524573199317047   -0.3885120746004935
   0.1452623122687627   -0.3325193230087353    5.2170945901099532
Rb Li Be O
1 1 1 1
direct
   0.0913133006727057    0.6538132294068599    0.8756211227145237 Rb
  -0.0254484363133968    0.1068523725043811    0.6729100710835969 Li
   0.0844563322327511    0.1453189248225973    0.1755313278381488 Be
   0.0659488012092447    0.0089864718609920    0.9680064822324056 O
