Ba1 Mn1 N2
1.0
   4.1348027629712272   -0.2154611298502189    0.1413890041856262
  -0.3262194435975296    4.2624454131768363    0.0574511604494140
   0.0506713533494793    0.0240418076785773    5.0392432795423421
Ba Mn N
1 1 2
direct
  -0.2940264660268646    0.5553361419244713    0.8107471755202631 Ba
   0.1544082583785627    0.1046015706601339    0.3126927258098541 Mn
   0.1644720274650427    0.1157951718297731    0.6870890832802025 N
   0.1254391635941035    0.1084011201126040   -0.0605289809290299 N
