Ba2 Te1 S3
1.0
   5.9334071287829948    0.0000000203363455    0.1916834141257545
   0.0000000215168567    5.5416505741229374   -0.0000000064444053
   0.1589952798955132   -0.0000000063268529    7.4637959175886524
Ba Te S
2 1 3
direct
   0.3543169796865946   -0.0000000090522787    0.9189263107006594 Ba
  -0.2154604781523344    0.0000000012918490    0.4202630674368119 Ba
   0.4761610779446386    0.5000000007979845    0.2164561247396740 Te
  -0.1468493017726881   -0.0000000013216605    0.0174322458751510 S
   0.5848086040734026    0.5000000066297434   -0.1488601854308098 S
   0.6107621106513469    0.5000000049646065    0.5730764247193135 S
