Cs1 K1 Li2 Bi1 Sb1
1.0
   5.1216549211572788    0.0000001609210036   -0.0000001821985093
   0.0000001599257762    5.3178143923134673   -0.0311034943243868
  -0.0000001248843057   -0.0270620751497705    7.9821250217676756
Cs K Li Bi Sb
1 1 2 1 1
direct
   0.5000000033616209    0.5215419767092327    0.6141033435124115 Cs
  -0.0000000508798224    0.0117637273721795    0.2982584004641152 K
   0.0000000577083963    0.4150164741037436    0.9605986235525682 Li
   0.5000000513210624    0.0770179003666910    0.9670481434674335 Li
   0.4999998969791867    0.5820802971649355    0.1113871766509597 Bi
   0.0000000411591931   -0.0911633667135350    0.8517033209925619 Sb
