Rb1 Ba1 Te1 O1
1.0
   6.0000000000000000    0.0000000000000000    0.0000000000000000
   0.0000000000000000    5.0645518273709840   -0.0000000189382007
   0.0000000000000000   -0.0000000122158948    8.7347515020187760
Rb Ba Te O
1 1 1 1
direct
   0.0000000000000000    0.0000000006015507   -0.0125112419059481 Rb
   0.0000000000000000    0.4999999966208800    0.3619848672566301 Ba
   0.0000000000000000    0.0000000000351208    0.6001390533827958 Te
   0.0000000000000000   -0.0000000000147361    0.2885183277444662 O
