Ba2 Cd1 Te2 S2
1.0
   6.0100963990710401    0.0000000001266405   -0.0000000172122750
   0.0000000001704706    6.0165305227938628   -0.0175454229729094
  -0.0000000176326543   -0.0173963829235586    6.2309503630091587
Ba Cd Te S
2 1 2 2
direct
   0.5000000000014778    0.5058480242080251    0.2040596714906978 Ba
  -0.0000000001081844   -0.0009586316787648    0.3212197865740929 Ba
   0.0000000002599535   -0.0000579323855961    0.6724469527778588 Cd
   0.4999999999454928    0.2359506685276089    0.5168896930432240 Te
   0.4999999999712857    0.5076404331161886    0.2060866194048355 Te
   0.0000000000851672   -0.0002204638252737   -0.0016611768454386 S
  -0.0000000001076387   -0.0009560989624331    0.3200664413108322 S
