Cs3 I2
1.0
   6.0456718236131444    0.0000000175078796    0.0196006475053374
   0.0000000175811104    6.1342298619627185   -0.0000000141850987
   0.0194073404164094   -0.0000000143033382    6.3091068187894050
Cs I
3 2
direct
  -0.0033669986438554    0.7500000023645630    0.0485564649780138 Cs
   0.2023201729064421    0.7500000042311561    0.5430908845945823 Cs
   0.2491325670555239    0.2499999913573371    0.2683783216012378 Cs
   0.0646408058341846    0.2500000024279587    0.7339766879372344 I
   0.1958504544582444    0.7499999996797057    0.4978836456828715 I
