Ba1 Si2 Rh1
1.0
   6.0000000000000000    0.0000000000000000    0.0000000000000000
   0.0000000000000000    4.1462255124245591   -0.0000053158201289
   0.0000000000000000   -0.0000031102001363    8.2060463437095041
Ba Si Rh
1 2 1
direct
   0.0000000000000000   -0.0000001586256536    0.6469423905877690 Ba
   0.0000000000000000    0.5000002065449410    0.1931430859815123 Si
   0.0000000000000000   -0.0000004670083917    1.0318186307639945 Si
   0.0000000000000000    0.0000004209784852    0.3239168919062160 Rh
