Ba1 Na1 Ag1 Bi2 Sb1
1.0
   5.8735907467415753    0.0427094373387115    0.0031898661470483
   0.0425807725913263    6.1265789044209615   -0.0089755072360432
   0.0026943911862354   -0.0078176529445909    6.6184797994499149
Ba Na Ag Bi Sb
1 1 1 2 1
direct
  -0.0067910570791944    0.5225345521671467    0.0025545414563407 Ba
   0.0016123873486280    0.0141840158229426    0.2083706308550499 Na
  -0.0011379499903301   -0.0178294098797341    0.3456803289119598 Ag
   0.3205023152709925    0.6815456424835735    0.5027612994759645 Bi
   0.0027723204489132    0.0281335732490538    0.1487383916685979 Bi
   0.0163749839538380    0.0080816258225376    0.7388878152791930 Sb
