Cs1 Y1 Se1 O1
1.0
   6.0000000000004938   -0.0000000000000396   -0.0000000169156921
  -0.0000000000000678    6.0000000000004823   -0.0000000286717738
  -0.0000000170078693   -0.0000000288365969    6.0375521997444821
Cs Y Se O
1 1 1 1
direct
   0.3333330000040297    0.6666670000041893    0.5190645171984596 Cs
   0.3333329999819396    0.6666669999684529    0.9103652047561442 Y
   0.3333330000543883    0.6666670000966919    0.5231295495652341 Se
   0.3333329999596423    0.6666669999306764    0.9278387220029469 O
