K1 Na1 Ca1 F2
1.0
   3.4654149382387365    0.3867978447550304    1.2816830140146269
   0.1656597455915061    6.1782439794143800    1.6809882525287196
   0.8726239526699306    1.4584765025935447    6.8682178238890330
K Na Ca F
1 1 1 2
direct
  -0.1415635076970277    0.5359044856145225    0.2493732324343521 K
   0.0490745141841033   -0.0975913008560397    0.5575561036417341 Na
   0.1322301520465290    0.1837653264570268   -0.1065490219893825 Ca
   0.1252331068993279    0.2552601343311826    0.5647024014870433 F
   0.0418187282598771   -0.0848996451732966    0.2350062905652075 F
