Sr1 Si2 Rh1
1.0
   6.0000000000000000    0.0000000000000000    0.0000000000000000
   0.0000000000000000    4.0218846436983098    0.0000007995279036
   0.0000000000000000    0.0000006269600252    8.1483896793620509
Sr Si Rh
1 2 1
direct
   0.0000000000000000    0.0000001092425858    0.6540770366653893 Sr
   0.0000000000000000    0.4999999909644476    0.1863809071160157 Si
   0.0000000000000000   -0.0000000111517506    1.0258048536175997 Si
   0.0000000000000000   -0.0000000912793698    0.3267551963485873 Rh
