Ba2 Te2 Se1
1.0
   5.8181633871049367    0.3558527390543955   -0.1060211908510748
   0.3587573303605953    6.4494462609801984   -0.1269540377099460
  -0.0985038386203615   -0.1337473256959902    6.5096775298674858
Ba Te Se
2 2 1
direct
   0.0612727946613354   -0.0524280750278612   -0.0705619458315352 Ba
  -0.0136349817341019    0.4825774989571651    0.3050910880547456 Ba
  -0.0128481642312524    0.4834298306351752    0.3038254240081004 Te
  -0.0735782828337588    0.4471487311235910    0.8013809350557637 Te
   0.2301946319592812    0.8306780143057770    0.4546244967267288 Se
