Ba1 Si2 Rh1
1.0
   6.0000000000000000    0.0000000000000000    0.0000000000000000
   0.0000000000000000    4.1451208823741990    0.0000004713070218
   0.0000000000000000    0.0000002824816829    8.2048017514037657
Ba Si Rh
1 2 1
direct
   0.0000000000000000    0.0000000186545712    0.6482984835892853 Ba
   0.0000000000000000    0.4999999876388467    0.1944403527990170 Si
   0.0000000000000000    0.0000000459667090    1.0331340724035845 Si
   0.0000000000000000   -0.0000000524788218    0.3252751011649261 Rh
