Cs1 Na1 Ag1 P1
1.0
   6.0000000000000000    0.0000000000000000    0.0000000000000000
   0.0000000000000000    7.1090213779032601   -0.7364736978977872
   0.0000000000000000   -0.7083311293458028    5.7933107801862143
Cs Na Ag P
1 1 1 1
direct
   0.0000000000000000    0.6126696700715161   -0.0101998580227645 Cs
   0.0000000000000000    0.2116633573072324    0.4001765959120993 Na
   0.0000000000000000   -0.1406841869011712    0.5766535918565046 Ag
   0.0000000000000000    0.1258151553115528   -0.1108403261277063 P
