Ba2 Te1 S1 O1
1.0
   4.7827794522321003   -0.0527112033413990   -0.3442861049068122
  -0.0356475405866360    4.3773313734282127   -0.6254300367751386
  -0.2538307186610744   -0.9928434410533553    8.5938922242317624
Ba Te S O
2 1 1 1
direct
   0.0417871374062927    0.3623024813114352    0.7872792690982996 Ba
   0.2989825551274000    0.0633271632126713    0.1947400908940208 Ba
  -0.1039877293602176    0.6792383428445052    0.4382357492429689 Te
  -0.2271854796578367    0.5418603465669591    0.1438245678671712 S
   0.1816125262073648   -0.0754283512833702   -0.0936416198635871 O
