Sr1 Si2 Rh1
1.0
   6.0000000000000000    0.0000000000000000    0.0000000000000000
   0.0000000000000000    4.0204678654606587    0.0000000319029474
   0.0000000000000000    0.0000000125212526    8.1492536197342318
Sr Si Rh
1 2 1
direct
   0.0000000000000000   -0.0000000153783702    0.6542280071437185 Sr
   0.0000000000000000    0.5000000087799455    0.1864384514835331 Si
   0.0000000000000000   -0.0000000100370898    1.0259363822491354 Si
   0.0000000000000000    0.0000000195506534    0.3269741715720512 Rh
