Mg2 Bi2
1.0
   5.6054207268931640   -0.0000000030025148   -0.0000000095992808
  -0.0000000029142613    5.1454277639105825    0.0000000000502564
  -0.0000000092682308    0.0000000003833146    5.7596227053438600
Mg Bi
2 2
direct
  -0.0000000448596112    0.4999999840795800    0.3380658824648240 Mg
  -0.0000000001435979   -0.0000000001489697    0.6283250784008233 Mg
   0.5000000438686264    0.5000000166989770    0.3222858648413340 Bi
  -0.0000000000504015    0.0000000000241031    0.1134351482104372 Bi
