Ba2 Te1 S2
1.0
   5.1807474238709741   -0.0000000227853963   -0.0000016437690472
  -0.0000000241866980    6.1417523051991436   -0.0000000089180144
  -0.0000017009475506   -0.0000000119463784    6.2825793187250483
Ba Te S
2 1 2
direct
  -0.0000001171206685    0.4999999962435563    0.4560066294115384 Ba
   0.0000000767108813    0.0000000035445590    0.9797989178512553 Ba
   0.4999996652249274    0.4999999980138581    0.0534103521137643 Te
   0.0000004037496984    0.4999999999166239   -0.0535562520310631 S
  -0.0000000262144915    0.0000000005325296    0.4797453674460628 S
