K1 Rb1 Li2 Bi1 Sb1
1.0
   4.7795832343145861   -0.0000025997260083   -0.0000015984448113
  -0.0000019421496680    5.8459057038404802    1.0140377396438913
  -0.0000005236162422    1.2914230972557990    7.8912091213352618
K Rb Li Bi Sb
1 1 2 1 1
direct
  -0.0000000521394837    0.4775530582601177    0.4130046074576043 K
   0.0000001235435719   -0.1692331207526413    0.7455919684612472 Rb
  -0.0000012806812305    0.1873147271729288    0.9964987502632366 Li
   0.4999999826047208    0.4102522503081466    0.0905961756743997 Li
   0.5000006870445688   -0.0966719103435351    0.1104940180170475 Bi
   0.5000005511429586    0.3241060102460668    0.7730704529492213 Sb
