Na4 Bi1 P1 S1
1.0
   5.8688569520903400    0.0000000006834051    0.0000000009411446
   0.0000000006684586    6.0716610158048434   -0.0066687263848117
   0.0000000009218050   -0.0067502087891893    5.9884249596979853
Na Bi P S
4 1 1 1
direct
  -0.0000000186683850    0.2773028640729326    0.4794504131846598 Na
  -0.0000000000968601    0.3581411415840409    0.0016096763736142 Na
  -0.0000000118083868    0.2276111452156779    0.4867668428719079 Na
   0.0000000314034303    0.2586934889543859    0.5268579412941266 Na
  -0.0000000000931631   -0.0959268161322405    0.0026931693604777 Bi
   0.5000000000385207    0.4853177396807808    0.5006280049877059 P
   0.4999999992802069    0.0081044198433853    0.2244729513390157 S
