Ba1 Na1 Si1 Ag1 As1
1.0
   4.5095405797228327   -0.1432531721199795   -0.7668034807838859
  -0.1515913192652826    5.3677405430375398   -0.2263459692170424
  -1.0604469675825907   -0.2435766446852414    5.8357325556430553
Ba Na Si Ag As
1 1 1 1 1
direct
  -0.2572722791471204   -0.2642764725134872   -0.0466441902110642 Ba
   0.1610430251820659    0.4304405098870895    0.4403861695684804 Na
   0.0614653451703040   -0.0498493764624195    0.5748605193574856 Si
   0.4818473463182082   -0.0180016913765459    0.3895916282829902 Ag
   0.2631535693796333    0.2101270233185443   -0.0483361407152360 As
