Cs1 Na1 Bi1 F1
1.0
   3.2252042920886490   -1.0081887468598298   -0.0270736577739306
  -0.7061561453101607    9.1097617864182716   -0.3805575772267772
  -0.1384222496193097   -0.6841537376613244    4.1580118901580176
Cs Na Bi F
1 1 1 1
direct
  -0.1760974081967404    0.4827611180805492    0.2995197510897321 Cs
   0.4764670525390847    0.1224609694720493    0.6641300783482678 Na
  -0.2603768117009158   -0.1262536085485226    0.0668944903567838 Bi
   0.1668001350471050    0.3134705603140930   -0.2805443171735000 F
