Rb1 Tl1 Zn1 As1
1.0
   4.3936991649078614   -0.4419966498253381   -0.4872694184847989
  -0.4419972869971855    4.3937027246463884    0.4872747708020694
  -0.5247167694081452    0.5247191837779638    7.6070347287299196
Rb Tl Zn As
1 1 1 1
direct
  -0.1142524036253297    0.1142524357139760    0.5116050856434798 Rb
  -0.0141364392888443    0.0141353368854095    0.0781893831684877 Tl
   0.3882090817092382    0.6117911463201307   -0.0729842229150623 Zn
   0.4068457590356695    0.5931550802877434    0.2401557533651638 As
