Cs1 Na1 Sc1 F2
1.0
   3.6383453283102591   -0.3176549475279202    0.5405849571720107
  -0.1188204856713043    8.1531553941596897    0.0730733570083879
   0.4157094384397924    0.0952693593257264    6.9495564967494445
Cs Na Sc F
1 1 1 2
direct
  -0.1363757285103390    0.5317643192400104    0.2876825029868617 Cs
  -0.0031372573542282    0.0539106839624108   -0.0123878995716478 Na
   0.1258745463347758    0.0335132072386971    0.4866729290548023 Sc
   0.2466376761220610    0.2663693168080692    0.4553789277236058 F
  -0.0262062429075362   -0.1006235300472979    0.2827415379025960 F
