K1 Na1 Ca1 F2
1.0
   3.2884469791582491    0.6687319691831026   -1.4331394179620656
   0.4531402478301865    6.7646499883035016   -0.5751590885907999
  -0.7845981623768136   -0.4831928459664541    7.1901104373459397
K Na Ca F
1 1 1 2
direct
  -0.3007055743930434    0.5560358129126982    0.2397065622880460 K
   0.0897615292063698    0.0703691558806904    0.4348187098842790 Na
   0.1567799052069846    0.0346394889402155   -0.0423065427899341 Ca
   0.3441215661224566    0.2565688887068509    0.2450691923795223 F
  -0.0831644266822586   -0.1251743526609566    0.1228010286079584 F
