Ba2 Te1 S1
1.0
   4.3951352155710532    0.1308839297970008    1.1859150988088634
  -0.1355536331239169    5.9934827198902454    0.0176339261881029
   0.8262083580457862    0.0219395864672266    6.4314610611278145
Ba Te S
2 1 1
direct
   0.0456206149759667    0.5863027520104082    0.7900221022981097 Ba
   0.3472567500737708    0.0852550226679635    0.2474155224542252 Ba
  -0.2057604352441508    0.5885083242812427    0.3560202565057104 Te
   0.0628830634768794    0.0858738820421322   -0.1358148740256053 S
