K1 Ba2 Te2 S1
1.0
   6.3168082110856787    0.0687080177972323    0.0598565091263848
   0.0668538989427836    6.2580327999001391    0.0567772859926716
   0.0570744807176408    0.0574025782934988    6.4544836259041212
K Ba Te S
1 2 2 1
direct
  -0.0219458153295937    0.1795430097312218   -0.0560618498961208 K
   0.3857032863822756    0.5310504134139636    0.6830653478542973 Ba
  -0.0187751668056787    0.5467864010211493    0.3149915136993314 Ba
   0.4960626459276706    0.4840777569121061    0.1682972526979451 Te
  -0.0171519035695619    0.5687221614506350    0.3160512410855210 Te
   0.0094399531602936   -0.0650697397091425    0.3370204942973635 S
