Ba1 Na1 Bi1 As1
1.0
   3.8109909726843627    2.2245310546910773   -0.0000001846859742
   0.8639691201966253    7.7673283632243422   -0.0000014991738594
  -0.0000004469772290   -0.0000022519930625    4.7855309117375224
Ba Na Bi As
1 1 1 1
direct
  -0.2232066265204324    0.6567223459475375   -0.0000001739135170 Ba
   0.3280295801888357    0.1522362260305394    0.5000000230120361 Na
  -0.2320192169844982    0.1929036979168612    0.0000000154342212 Bi
   0.4605293112929769    0.4865048151075743    0.5000001347300137 As
