Cs2 Na2 Bi1 Sb1
1.0
   5.8106109866558278    0.0000000002382722    0.0000000055054142
   0.0000000013429042    6.3377974135114812    0.9848102972073400
   0.0000000065180744    0.9118223376443546    7.5808891979367434
Cs Na Bi Sb
2 2 1 1
direct
   0.0000000024413226   -0.1320758880604977    0.5881663195988593 Cs
   0.4999999977756013    0.4214442778772887    0.4175217203286014 Cs
   0.0000000009991847    0.3148242325232529    0.9819327618605452 Na
   0.4999999990888969    0.0084166591028291    0.0126271544796426 Na
  -0.0000000009109936    0.7546422570794102    0.0989969618081381 Bi
   0.4999999993326543    0.5636894571983115    0.9082160748600815 Sb
