Sr1 Si2 Rh1
1.0
   6.0000000000000000    0.0000000000000000    0.0000000000000000
   0.0000000000000000    4.0419030794725996   -0.0000003583474075
   0.0000000000000000   -0.0000002181868205    8.1220764328111823
Sr Si Rh
1 2 1
direct
   0.0000000000000000    0.0000000110609177    0.6553458035746714 Sr
   0.0000000000000000    0.5000000256664189    0.1928034937073013 Si
   0.0000000000000000   -0.0000000228791732    0.0278143473420631 Si
   0.0000000000000000   -0.0000000124493673    0.3276233574420523 Rh
