Rb1 Al1 F2
1.0
   5.6456725869094040    0.0175076220893797   -0.0000000189330059
   0.0397609943360819    6.3718329326966767   -0.0000000386160950
  -0.0000000268742824   -0.0000000468055588    3.8894070095317770
Rb Al F
1 1 2
direct
   0.0728626445171274    0.5074745580039265    0.4999999860319497 Rb
  -0.0525984162581841    0.0105273118597365    0.0000000058986472 Al
   0.1659211230989711    0.2112336551902859    0.0000000007584586 F
   0.0158166466834820   -0.0272215289548430    0.5000000144302759 F
