Cs1 Na1 Li3 Sb1
1.0
   5.0803738917028083   -0.0000000038496262   -0.0000001414464667
  -0.0000000069565469    7.4240121052903651   -0.2454618391011483
  -0.0000001335836619   -0.2545408728754084    5.8151603639265437
Cs Na Li Sb
1 1 3 1
direct
  -0.0000000032948137    0.7239304889281014    0.7608759904346750 Cs
  -0.0000000149189199    0.1799069896472027    0.2839707605222244 Na
  -0.0000000014034901    0.1915491969224102    0.3107876903480608 Li
   0.4999999703521710    0.3296552596477568    0.0401557429240274 Li
   0.5000000102628280    0.1870163928861737    0.6077522682312430 Li
   0.0000000376028025    0.2339036741615453    0.8031205482677160 Sb
