Cs1 Rb1 Na1 Li1 Bi1 As1
1.0
   6.0034085943186799    0.0983330752868305   -0.0163090011821565
   0.1002691071130144    6.5142294227696693   -0.1180606532702685
  -0.0165026628373230   -0.1160261736278063    5.9905419765398999
Cs Rb Na Li Bi As
1 1 1 1 1 1
direct
   0.6424766446718065    0.5462815283261453    0.9373983314152645 Cs
   0.6604172546635744    0.5735964629531930   -0.0661329525443955 Rb
  -0.0011691528364889    0.1741800943025353    0.4181374415111377 Na
   0.3162579817798078    0.2387623293882395    1.0164202661009893 Li
   0.5172454887076587   -0.0328351290975867    0.3110950511858117 Bi
   0.5163667829500509    0.0162727096485960    0.7503448704726304 As
