Rb1 Y1 In1 O2
1.0
   5.1448056262403430   -0.0577152583559708    0.0598418691065395
  -0.0577154355827761    5.1448067359978040   -0.0598442718655351
   0.0665852230810345   -0.0665874139440240    6.5221600948976866
Rb Y In O
1 1 1 2
direct
   0.4659221744302084    0.5340778341482770    0.8698836518630136 Rb
   0.0152763680603478   -0.0152767031080578    0.3773429364076546 Y
  -0.0541707932901643    0.0541708406736415   -0.1207128043092781 In
   0.2947575180243024    0.7052428552788353    0.4691736886222821 O
   0.2782137300844790    0.7217861756755820    0.2395665246637323 O
