Rb1 Na1 Ca1 F2
1.0
   3.2141460501755246    0.5185504701890447    1.3793518841849841
   0.2262170738333386    6.7622340091675408    2.0174035357032434
   0.9999023283706090    1.7405270942366491    6.8843721072992832
Rb Na Ca F
1 1 1 2
direct
  -0.2615580265764588    0.5548186402033233    0.2393193865502847 Rb
   0.1414126108283548   -0.0781376616731464    0.5231596013014329 Na
   0.2537677070130940    0.1797647851968941   -0.1087086543390074 Ca
   0.0161200514951782    0.2519733479335270    0.6118980718468670 F
   0.0565516565463287   -0.1159881089080488    0.2344206052296266 F
