Cs1 Rb1 Sc1 S2 O3
1.0
   5.9891690186137501   -0.0134711235272483   -0.0264555425948267
  -0.0134711234843157    5.9891690149583443    0.0264555490052287
  -0.0261359395374011    0.0261359461901862    6.2894613550652654
Cs Rb Sc S O
1 1 1 2 3
direct
   0.0000505826657365   -0.0000505849786018    0.7741934794483546 Cs
   0.3319716760834078    0.6680283285031835    0.2788099503286915 Rb
   0.6664824786895409    0.3335175199007501    0.0292967961603519 Sc
  -0.0020629830495119    0.0020629769803167    0.3618487888374339 S
   0.3543823361209398    0.6456176662165684    0.8632950053245240 S
  -0.0068368286424235    0.0068368301983703    0.1201887146805899 O
  -0.0120083320599790    0.0120083391405490    0.3558883910511909 O
   0.3346870720720340    0.6653129240370079    0.6217018918578483 O
