K1 Ca1 Bi1 P1
1.0
   6.0000000000000000    0.0000000000000000    0.0000000000000000
   0.0000000000000000    7.9903669740979897    0.3229260309153845
   0.0000000000000000    0.1748177082431186    5.2772463021630873
K Ca Bi P
1 1 1 1
direct
   0.0000000000000000    0.1709172019344202    0.3583283841171714 K
   0.0000000000000000    0.7223541731344655    0.2913383728935592 Ca
   0.0000000000000000    0.5090262725282171    0.8159518268248754 Bi
   0.0000000000000000   -0.1564096531079697   -0.2156185840435694 P
