Rb1 Na1 Ca1 F2
1.0
   3.2619027173706998    0.4208742684161815    1.3526280930860612
   0.1797646925581893    6.7905393972211536    2.0038663822379736
   0.9916488743902698    1.7226237321999867    6.8761226962095625
Rb Na Ca F
1 1 1 2
direct
  -0.2621662741349866    0.5542098969755651    0.2427426696269870 Rb
   0.1506321903374591   -0.0823484334644521    0.5212930228583432 Na
   0.2568190387025186    0.1811111378950358   -0.1117252607338003 Ca
   0.0191570636797410    0.2519173442712950    0.6132209899052301 F
   0.0424999724547498   -0.1124509414182090    0.2345575815149015 F
