Cs1 Na1 Cd2 As1
1.0
   5.9999999999999982    0.0000000000000000    0.0000000000000000
   0.0000000000000000    6.3621800254679384   -0.0336709596304190
   0.0000000000000000   -0.0338616920445230    6.1829655917830646
Cs Na Cd As
1 1 2 1
direct
   0.0000000000000000   -0.0012206530130139    0.9760423014615465 Cs
   0.0000000000000000    0.1677484633888075    0.4081575440247676 Na
   0.0000000000000000   -0.0122574691206569   -0.0648813556600317 Cd
   0.0000000000000000    0.6033545863377154    0.2545637369070179 Cd
   0.0000000000000000    0.4923750728654586    0.8280067738352503 As
