Cs1 Al1 F2
1.0
   5.5631838004203527    0.0517986054098372    0.0000001291652026
   0.0775050321790854    6.7854396932926253   -0.0000000683491750
   0.0000001534172265   -0.0000000201200743    4.0375648772114747
Cs Al F
1 1 2
direct
   0.0584939788159986    0.4955078857658264    0.4999999433031278 Cs
  -0.0317453654074133    0.0036666725107262    0.0000000490689489 Al
   0.1698875043636054    0.2056484292638767    0.0000000670449331 F
   0.0053638807174584   -0.0028199917796218    0.4999999441067997 F
