Cs1 Na2 Sb1
1.0
   4.0570652159387661   -0.0000002183995222    0.0000000399141446
  -0.0000001319160624    7.4067265362396020   -1.4977649492177920
   0.0000000052287201   -1.1716482619869195    6.6090854201508256
Cs Na Sb
1 2 1
direct
   0.0000000282528981   -0.2106850532763570   -0.1152639812169950 Cs
  -0.0000000156401975    0.1278681100630613    0.5734158940472328 Na
   0.0000000002261084    0.4691597498959297    0.2552368614740361 Na
   0.4999999900101860    0.7966562019192771    0.3883702438374117 Sb
