Li1 Mg1 Zn1 Ag1
1.0
   3.4210488987350658   -0.0200881660595286   -0.0724661955425001
  -0.0200875738212760    3.4210520704517493   -0.0724673327880154
   0.0851288043578249    0.0851274599045171    6.0086682399904694
Li Mg Zn Ag
1 1 1 1
direct
   0.3819155975036174    0.3819156318949440    0.7714347794976526 Li
  -0.1369392644769610   -0.1369389489215783    0.4935503987488179 Mg
   0.3756176596075159    0.3756174817238160    0.2301533084997858 Zn
  -0.1205939972288915   -0.1205941572705291    0.0048614977853891 Ag
