Rb2 Sc1 S3
1.0
   4.1459720594846736   -0.0000000371528471   -0.0000001386181074
  -0.0000000432003339    4.8632107129988853    0.0000007850675630
  -0.0000000348048669    0.0000004529579968    9.3191809328756197
Rb Sc S
2 1 3
direct
   0.4999999765792646    0.5000000024983009    0.7100959606030161 Rb
   0.0000000131908513   -0.0000000595983863    0.0501200344587701 Rb
   0.5000000275254014    0.0000000635571628    0.3966600465733618 Sc
  -0.0000000327413278   -0.0000000213337018    0.5542807183327716 S
   0.5000000268494407    0.4999999428520064    0.0925385173165044 S
   0.4999999857909477    0.5000000765705568    0.3402017293813210 S
