Cs1 Na1 Ag1 P1
1.0
   6.1794378298273163    0.2967972111601677    0.2617146505141584
   0.2636349266655325    4.5922364435794654   -0.2060849348678593
   0.2872783733547121   -0.3166950012295107    5.5257745655295158
Cs Na Ag P
1 1 1 1
direct
  -0.0132465087457584   -0.0956825501582385    0.2647756428794774 Cs
   0.4696688539207762    0.5343972061532332    0.6088827446595094 Na
   0.5037460596050044    0.0666525136914149   -0.0154153613396943 Ag
   0.5286205875256073    0.5720328280171452    0.1090679794344606 P
