Rb1 Na1 Ca1 F1
1.0
   6.0000000000000000    0.0000000000000000    0.0000000000000000
   0.0000000000000000    6.4751629241676252    0.0000000018527308
   0.0000000000000000    0.0000000016584259    8.2370542243971059
Rb Na Ca F
1 1 1 1
direct
   0.0000000000000000    0.5000000003726913    0.2662115866241420 Rb
   0.0000000000000000    0.0000000001373862    0.5064671193978552 Na
   0.0000000000000000    0.0000000000721082   -0.0159128344752807 Ca
   0.0000000000000000   -0.0000000001137143    0.2322071311985179 F
