Rb1 Al1 Ag1 F1
1.0
   3.2005438323122872   -0.0341598877751772    0.7909254756508326
   0.1834513689936543    3.9890273595475678   -0.7349687223671140
   0.6210710013046947   -0.4801229698966153    7.3901415633345229
Rb Al Ag F
1 1 1 1
direct
   0.3379056676113358    0.0614259208736265    0.4708833466418879 Rb
   0.1375936135607272    0.3746771483255569    0.0345661692107347 Al
  -0.3099913725579791   -0.1777489700513875   -0.0790227759318571 Ag
  -0.0511449208747505    0.4916459029987920    0.3158762478241867 F
