K1 Au3
1.0
   4.6836728356419517   -0.5629596583616323    0.0822167536681953
  -0.4188576104450595    6.1619100825598032    0.7404160064278454
   0.0906555928202400    0.8955575216382174    3.8850076734020669
K Au
1 3
direct
   0.4477569654964932    0.5959205612385892    0.6245873707004601 K
  -0.1027723955724684    0.0224769668037359   -0.0730062099517763 Au
   0.3206569939249431    0.1099584300111165    0.3661925095709246 Au
  -0.1242535725464261    0.3476370192989805    0.2496673297882190 Au
