Cs1 Ba1 Na1 Li1 Bi1
1.0
   4.7704098065643885    0.0000000195299457   -0.0000000176491703
   0.0000000149530042    8.5282510023628255    0.4632016387000198
  -0.0000000266728179    0.1582257945747405    6.5788906335666404
Cs Ba Na Li Bi
1 1 1 1 1
direct
   0.0000000036191208   -0.1539166181969897    0.8360518763009763 Cs
   0.4999999985441958    0.3558659199481506    0.6360658967901883 Ba
  -0.0000000027665179    0.6856825542560242    0.3320902672814796 Na
  -0.0000000001145669    0.3378262654848498    0.1472928940573657 Li
   0.5000000011934803    0.5245418797503002    0.1132610558624738 Bi
