Ba1 Si2 Pt1
1.0
   6.0000000000000000    0.0000000000000000    0.0000000000000000
   0.0000000000000000    4.1327290106146322    0.0000040898624376
   0.0000000000000000    0.0000025271711715    8.5222917874469513
Ba Si Pt
1 2 1
direct
   0.0000000000000000    0.0000000546113828    0.6618902115458464 Ba
   0.0000000000000000    0.4999998769756899    0.1892551542921902 Si
   0.0000000000000000    0.0000003018431954    1.0335755230376547 Si
   0.0000000000000000   -0.0000002328471302    0.3223791250262005 Pt
