Cs1 Na2 Li1 Bi1 As2
1.0
   6.1891067620451663    0.0621993517478020    0.0022910760065713
   0.0710088341309921    6.4413492562029804    0.0281115383402286
   0.0222105095680010    0.0241790796956725    6.2571980028550271
Cs Na Li Bi As
1 2 1 1 2
direct
   0.1609862297141239    0.5062794194589610    0.3569461895500093 Cs
  -0.0208729486969463   -0.0081430756956452    0.0766562320055127 Na
   0.3041732810850739   -0.0220017244115594    0.6962924959951725 Na
   0.5805584610229714    0.2807689385815713    0.9736535832462369 Li
  -0.2370710134492395    0.0336949172786276    0.5257154238612058 Bi
   0.4664660872776260   -0.0014045315226178    0.2190616270355652 As
   0.4720439147342593    0.0124050549984655    0.2070664453985222 As
