Ba1 Cd1 Sn1 P1
1.0
   4.6980562823423107   -0.1634041698676936   -0.0818071089965426
  -0.1858862603299047    5.8949230002285784   -0.5166598288326241
  -0.0725998650859850   -0.5142280820749250    5.1610258029874121
Ba Cd Sn P
1 1 1 1
direct
  -0.1426592366303999    0.4940549231692155    0.3674937568532394 Ba
  -0.0239206947770419   -0.0538892369266064   -0.0431083488901247 Cd
   0.3593644257141306    0.3150392584622706    0.8163065005436122 Sn
   0.0666125084196668    0.0194200511435151    0.4774450867140824 P
