Sr1 Si2 Rh1
1.0
   6.0000000000000000    0.0000000000000000    0.0000000000000000
   0.0000000000000000    4.0512643646056832    0.0000000022147650
   0.0000000000000000   -0.0000000178573593    8.1134599455753236
Sr Si Rh
1 2 1
direct
   0.0000000000000000   -0.0000000079387936    0.5821634599518879 Sr
   0.0000000000000000    0.4999999962903908    0.1173627133533613 Si
   0.0000000000000000   -0.0000000022964026   -0.0455265915990381 Si
   0.0000000000000000    0.0000000152170450    0.2536644117377946 Rh
