Sr1 Si2 Pt1
1.0
   6.0000000000000000    0.0000000000000000    0.0000000000000000
   0.0000000000000000    4.1698230709466326   -0.0000001134890755
   0.0000000000000000   -0.0000000348413238    8.4165160793277654
Sr Si Pt
1 2 1
direct
   0.0000000000000000   -0.0000000017475199   -0.0073461576521835 Sr
   0.0000000000000000    0.5000000229705924    0.2749902656696936 Si
   0.0000000000000000   -0.0000000240975328    0.3888792763915669 Si
   0.0000000000000000    0.0000000020622331    0.6459126157813595 Pt
