Rb1 Na1 Sc1 F2
1.0
   3.6188377459605170    0.1342874864757181   -0.1300857423072617
   0.1628583396248473    7.1535534159927199   -1.4734568206634608
  -0.1696436039250012   -1.2190327933788665    6.3388979623726733
Rb Na Sc F
1 1 1 2
direct
   0.0081533086725458    0.5479463832164269    0.2531323364687971 Rb
  -0.1018354523571602   -0.0943601140112858   -0.0657906940339649 Na
   0.1633693978103207    0.1410251797320537    0.5976849594897991 Sc
   0.1355334670691543    0.1860567152310807   -0.0841601179525615 F
   0.0231922795999826   -0.0373941659829548    0.2992225040056407 F
