Cs1 Na1 Ag1 Bi1 As1
1.0
   6.0000000000000027    0.0000000000000000    0.0000000000000000
   0.0000000000000000    5.3909566940106899   -0.0000001364906070
   0.0000000000000000   -0.0000000980433108   10.3048822788100658
Cs Na Ag Bi As
1 1 1 1 1
direct
   0.0000000000000000    0.5000000020669232    0.0085125498927347 Cs
   0.0000000000000000    0.4999998903738982    0.4119729749177192 Na
   0.0000000000000000   -0.0000000040618254    0.6055852395578023 Ag
   0.0000000000000000    0.0000000878593827    0.3195605820540828 Bi
   0.0000000000000000    0.5000000266437016    0.6757646284503429 As
