Rb1 Y1 Sc1 S2
1.0
   3.5887825241254849    0.1827513026721436    1.1733121744732031
   0.1827505166982066    3.5887832807705333   -1.1733126471253774
   0.8300653717209999   -0.8300653756436662   11.0438440827857463
Rb Y Sc S
1 1 1 2
direct
   0.5535724130058108    0.4464277090810865    0.7493015834536476 Rb
  -0.0170287077539943    0.0170287261592386    0.3652196566762416 Y
  -0.2609794278076480    0.2609794457904412    0.1357090938673060 Sc
   0.3122398147035175    0.6877601334117694    0.0772229551753794 S
   0.4121949001036358    0.5878049764797756    0.4278416797390426 S
