Rb1 Y1 In1 O2
1.0
   5.4629681130373537    0.0263406014090936    0.3001741312721655
   0.0263404556652504    5.4629761871066318   -0.3001793638421971
   0.2797532527422915   -0.2797571963195100    6.4982838384207042
Rb Y In O
1 1 1 2
direct
   0.5028666974423661    0.4971335745671831    0.8028838675796848 Rb
   0.0607522335890858   -0.0607534482636527    0.3691497133470070 Y
   0.0163048935806524   -0.0163039518210538   -0.1185301290594190 In
   0.2113098701314289    0.7886898810900566    0.0924694508176113 O
   0.2087653018412831    0.7912349440012357    0.5990440942816480 O
