Cs1 Mg1 Br2 O1
1.0
   5.9958558100714789    0.0644468555400412    0.0248110666300495
   0.0646271543830811    6.0754464672134647   -0.0597911667541272
   0.0251815966698940   -0.0607580599886271    6.0418769799639680
Cs Mg Br O
1 1 2 1
direct
   0.0821668395494085    0.1723704095704437    0.7183149243891402 Cs
   0.3447292810233376    0.6749821925635401    0.0223238444018267 Mg
   0.3494074529242828    0.6810440568048937    0.0349497283867480 Br
   0.0393786716232130    0.3991256867247188    0.2322941283191668 Br
   0.3300687547046905    0.6669896529001736    0.7251083746909691 O
