Ba2 Te2 S2
1.0
   4.4961730574788481    0.0000000084946488    0.0000002245041303
   0.0000000095684291    5.2867031218541101    0.0000030287347278
   0.0000001384401157    0.0000018425409850    8.9100510658399887
Ba Te S
2 2 2
direct
   0.4999999538868187    0.5000002896842398    0.4466581118138852 Ba
   0.0000000303923544   -0.0000001662420744    0.8965820271650582 Ba
   0.5000000463815676    0.4999999495675974   -0.1301431904876111 Te
  -0.0000000013865165    0.5000002560540528    0.1407675189668470 Te
  -0.0000000269550618    0.0000005029060347    0.5350640909165401 S
  -0.0000000018602711   -0.0000008316400496    0.2994544109344276 S
