Cs3 Te2
1.0
   5.9642038276991034   -0.5287807363592676   -0.2480579128630484
  -0.4865591193386548    7.5570554291247802   -1.0723070097400624
  -0.2618309240925209   -1.0605708078960177    7.6499430148565901
Cs Te
3 2
direct
   0.2412430004393126    0.7922407944711778   -0.0476796063739239 Cs
   0.3399023291559497    0.1727714000293382    0.5404144915319341 Cs
  -0.2450667377989067    0.5485142120350606    0.2801192883933913 Cs
   0.1824811438942087    0.2862217098613145    0.0700878849650893 Te
  -0.1844577301211869    0.0512858819227203    0.2090859450381080 Te
