Ba2 Te3
1.0
   5.9999999999999982    0.0000000000000000    0.0000000000000000
   0.0000000000000000    6.0000000000000320   -0.0000000109579611
   0.0000000000000000   -0.0000000108791702    6.7237922875659351
Ba Te
2 3
direct
   0.0000000000000000    0.5000000000440535    0.1770213123256832 Ba
   0.0000000000000000    0.4999999999313884    0.8137826298975536 Ba
   0.0000000000000000    0.5000000000178159    0.5071902408117374 Te
   0.0000000000000000    0.5000000000457425    0.1765532540826318 Te
   0.0000000000000000    0.4999999999609986    0.8596985587370723 Te
