Ba2 Te1 O1
1.0
   5.5708509698120352   -0.9969936523879943    0.1115108092136018
  -0.9969951306581943    5.5708700264865163   -0.1115110532033670
   0.1307992279729104   -0.1307995123182444    4.8490782019693812
Ba Te O
2 1 1
direct
  -0.0379447024456805    0.0379457293768269    0.6877316364303865 Ba
   0.3124929058063011    0.6875078801416663    0.1766118721998206 Ba
   0.6731279108061174    0.3268715896186922    0.2523322000044552 Te
   0.0523238881550651   -0.0523251984050811    0.1734392843261118 O
