Rb2 Na2 Bi1 Sb1
1.0
   5.8128237400246716   -0.2611341028366858    0.4839391866847696
  -0.2586800665034767    6.0207125249002758   -0.0242591433523453
   0.5187641129575814   -0.0466755992505122    6.8739476596508098
Rb Na Bi Sb
2 2 1 1
direct
  -0.0292299509153344    0.9213010995112141    0.4347053965661366 Rb
   0.3945426358092048    0.4828166217958202    0.6126435173266037 Rb
   0.3941220787702270    0.5023293384695167    0.6387338844731156 Na
   0.5737359129026622    0.4440464963472609    1.0788331553920534 Na
   0.0124436104103918    0.1473592249003806   -0.0530167907981843 Bi
   0.4847917169714771   -0.0348787764566866    0.8858378450360479 Sb
