Ba1 Si2 Rh1
1.0
   6.0000000000000000    0.0000000000000000    0.0000000000000000
   0.0000000000000000    4.1463043567733546   -0.0000013481934888
   0.0000000000000000   -0.0000007908029539    8.2060140026383763
Ba Si Rh
1 2 1
direct
   0.0000000000000000   -0.0000000748046670    0.6470083606762814 Ba
   0.0000000000000000    0.5000000857731532    0.1932386021260573 Si
   0.0000000000000000   -0.0000001324095497    1.0318965014351582 Si
   0.0000000000000000    0.0000001188077321    0.3239795423419663 Rh
