Rb3 Y1 Se1
1.0
   7.5363663219069190   -0.1344823157949625   -0.0298265851827322
  -0.1344823132735484    7.5363662037330164    0.0298277027812594
  -0.0202818868988820    0.0202828446866213    9.4892067388005792
Rb Y Se
3 1 1
direct
  -0.0702501860236289    0.0702502237014987    0.1274904918290114 Rb
   0.3608427305647757    0.6391571912248462    0.8079903813269943 Rb
   0.3985870944498450    0.6014129617728232    0.2090000936256651 Rb
  -0.0891043633798421    0.0891044075090992    0.2476730907582937 Y
   0.3999237241533242    0.6000762152868702    0.5100719484417883 Se
