Ba1 Si2 Pt1
1.0
   6.0000000000000000    0.0000000000000000    0.0000000000000000
   0.0000000000000000    4.2246193175062317   -0.0000025619692495
   0.0000000000000000   -0.0000015889666630    8.6067986884886647
Ba Si Pt
1 2 1
direct
   0.0000000000000000   -0.0000000691292310   -0.0145934052143096 Ba
   0.0000000000000000    0.5000001675918284    0.2799215886527421 Si
   0.0000000000000000    0.0000003245494222    0.3909387811751632 Si
   0.0000000000000000   -0.0000004221449359    0.6453420453805491 Pt
