Mg1 Cd1 Ag1 Pd1
1.0
   3.4834315827446449   -0.0367206630741106    0.0198812649571099
  -0.0367205748638704    3.4834337151530459    0.0198820976935018
   0.0152686333554660    0.0152695673660744    6.0660997186471031
Mg Cd Ag Pd
1 1 1 1
direct
   0.3783633068836976    0.3783635207505548    0.2177483727349737 Mg
  -0.1263318396490521   -0.1263316663414171    0.5080270434887558 Cd
   0.3776416917992556    0.3776414476743807    0.7578791516508848 Ag
  -0.1296731585965360   -0.1296733014718751    0.0163454277606881 Pd
