Cs1 Rb1 Sc1 F1
1.0
   4.9333447573639031   -0.0429696985818514   -0.7022078051668321
  -0.0363264116490278    5.2410897891075185   -0.9779573276417909
  -0.6760920330727689   -0.9432467309065176    7.7625265949638251
Cs Rb Sc F
1 1 1 1
direct
  -0.0399519753441546   -0.1618293204995536   -0.0552860575699816 Cs
   0.2111333816211651    0.0971134389808422    0.5704898604055616 Rb
   0.5921989184623404    0.4961582710459490    0.3122292678256559 Sc
   0.4271516775099713    0.5685576104859391    0.5248029295203612 F
