Rb1 Ba1 Te1 S3
1.0
   5.6944424831237699    0.0000000104242851   -0.0000000634723214
   0.0000000123794383    5.1575002002800669   -0.0000475287400034
  -0.0000000413496675   -0.0000296320933852    8.4656481761610252
Rb Ba Te S
1 1 1 3
direct
   0.0000000398340224    0.4999991937263830   -0.0772826454678526 Rb
   0.0000000166645611    0.5000009340965089    0.3984427192787289 Ba
   0.4999998958401979    0.0000290351471402    0.1426807306890528 Te
   0.0000000362960674   -0.0000004814447338    0.1718136773778769 S
   0.5000000205774265    0.4999730352678058    0.2806379879243026 S
   0.4999999879906306    0.4999982877834482    0.5332365261883939 S
