Cs1 Na1 Mo1 F2
1.0
   4.6245714657519015   -0.5986711738347281   -0.3582271135823087
  -0.5513390202657342    8.4229876444063265   -1.1517380673334037
  -0.2916287079042937   -1.1107649891756237    6.4987942993928600
Cs Na Mo F
1 1 1 2
direct
  -0.2133865046613707    0.4146544994912671    0.1871869830606991 Cs
   0.1544457644959283    0.0684840455220897    0.5741255422129321 Na
   0.0734330830658473   -0.0461411332276702    0.0166748703791037 Mo
   0.2314512874184764    0.1757408813969244   -0.0518769828724585 F
  -0.0180016354854199    0.1305407020311783    0.2800515741586338 F
