Ba3 Te2 S1
1.0
   6.4186381921176396    0.0549207952821448   -0.0071366215822123
   0.0557556227578019    6.3817269317937928   -0.0116104449982294
  -0.0072973181974625   -0.0116311939901134    6.1845760399386975
Ba Te S
3 2 1
direct
   0.0009703580257140   -0.0011299083890395    0.7527421474991507 Ba
   0.4182501842940814    0.7330561258112364    0.2639242434322166 Ba
   0.5803074244973193    0.2706743666042117    0.2885964578511689 Ba
  -0.0105418511989183    0.0113801852823008    0.2509116193510764 Te
  -0.0019304213773826    0.5053148761433766    0.2372456472306155 Te
   0.0129443020932967   -0.0192956480267744    0.2543928834972540 S
