K1 Li1 Mo1 F2
1.0
   5.9225468079775450    0.0414767456251807   -0.0209213194309173
   0.0416712920299129    6.0494570920434612   -0.0608945591530387
  -0.0201434569164602   -0.0577825908410343    6.6285347163950901
K Li Mo F
1 1 1 2
direct
   0.0120683266923586    0.4940316417202503    0.2540116574239512 K
   0.0041083145292360    0.0037115389326307    0.5495530589317237 Li
   0.0008253035479496   -0.0035866644509070   -0.0534433573377939 Mo
   0.2170763905946611    0.2627791780877637   -0.0064946316849783 F
  -0.0097563344242440   -0.0136696940420837    0.2663712679309710 F
