Rb1 Al1 F2
1.0
   5.6906808523820018    0.1363328920921072    0.0203155924827297
   0.1493939027834781    5.3549944282078918    0.0200279240195706
   0.0225414892882801    0.0199321953763916    5.3008358076388093
Rb Al F
1 1 2
direct
   0.0867826911939923    0.4741931424859696    0.4969938612525661 Rb
  -0.0276912061801888   -0.0026169431399198   -0.0097281989689060 Al
   0.1455995159976073    0.2644386356019222    0.0041909749442060 F
   0.0101720019632132   -0.0211518296653377    0.6581663651178571 F
