Sr1 Si2 Rh1
1.0
   6.0000000000000000    0.0000000000000000    0.0000000000000000
   0.0000000000000000    5.5239002305411304   -0.0113263117479726
   0.0000000000000000   -0.0122966528621031   10.3418068039564499
Sr Si Rh
1 2 1
direct
   0.0000000000000000    0.0005614659697138    0.6739008819947445 Sr
   0.0000000000000000    0.4697216272477407    0.2533713800386791 Si
   0.0000000000000000    0.0370414813949016    0.2547261559428759 Si
   0.0000000000000000   -0.0063555748479525    0.7616425827656057 Rh
