Rb1 Sr1 P1 H2 Cl1
1.0
   5.1139308942570159   -0.0630625684186083   -0.1788347150121994
  -0.0373426538014630    6.9709642691837015    0.2051549120333687
  -0.1866568241643872    0.1345889267811859    6.2856752436906511
Rb Sr P H Cl
1 1 1 2 1
direct
  -0.0153708388858030    0.3358929320714445    0.7906835658809986 Rb
  -0.1078983256464535   -0.1593563913811374    0.2783074890919299 Sr
   0.4056837986333708   -0.0266679272720299    0.1262925699244605 P
   0.1737788042201636    0.0984420747118133    0.1228562366312752 H
   0.2296987630566166    0.8445522680893278   -0.0002947999704174 H
  -0.0883842017241490    0.4358470463532503    0.2780479425436194 Cl
