Sr2 Bi1 P1
1.0
   5.0611599585201352    0.4728726885299771   -0.0000000031728555
   0.4867073448293013    4.8499661585461462   -0.0000000058556013
  -0.0000000036377972   -0.0000000062056779    5.0570045078325228
Sr Bi P
2 1 1
direct
  -0.0158207101632116    0.3357016758454332    0.5000000079530629 Sr
  -0.0341196932026276    0.3951317738344316    0.4999999931337208 Sr
   0.0308452268610426   -0.0621254052609325   -0.0000000000861480 Bi
   0.3524281768935406    0.7280599560429013    0.4999999990246716 P
