Ba1 Zr1 B1 O1
1.0
   5.9888401371003050    0.0296983937752249   -0.0530527154007539
   0.0432597236049183    3.2135004271161636    2.0210614498886219
  -0.0454988417211129    1.0310081353341181    9.0584911797455554
Ba Zr B O
1 1 1 1
direct
  -0.0231650706244196   -0.1285237903150765    0.0093904729522300 Ba
   0.0841835431613118    0.1111517197727749    0.5164737896294732 Zr
  -0.0083311990385065   -0.1345155718201335    0.3478335054184578 B
  -0.0175822740559406    0.7255326409258007    0.7738682331301631 O
