Rb1 Y1 Sc1 S1
1.0
   3.5762635712433766   -0.8787774872386875   -0.6387937098721048
  -0.8789643402036602    3.5758306138817155    0.6383790991185082
  -0.4827291871105915    0.4830480430412562   10.9103853378951516
Rb Y Sc S
1 1 1 1
direct
   0.4409889050409208    0.5590022449923471    0.7716510747505211 Rb
  -0.1890812541293016    0.1893604238274081    0.4019914049855016 Y
   0.0105533502850330   -0.0108270211164372    0.1253819300409055 Sc
   0.4042049750518336    0.5957983472822547    0.2514845645995176 S
