Rb1 Sr1 Te1 O1
1.0
   6.0000000000000000    0.0000000000000000    0.0000000000000000
   0.0000000000000000    5.5228507066880486   -0.0565234558597490
   0.0000000000000000   -0.0611430112726591    6.1460338734873217
Rb Sr Te O
1 1 1 1
direct
   0.0000000000000000    0.2511198998919410    0.7299835784187322 Rb
   0.0000000000000000    0.5173452752285905    0.2385477869168040 Sr
   0.0000000000000000    0.5169402894044539    0.2376247657085318 Te
   0.0000000000000000   -0.0330454660617684    0.0584488689234697 O
