Ba2 Zn1 Cd1 S1 O1
1.0
   5.9222777162137028   -0.0000000009604620   -0.0000000109815706
  -0.0000000009604761    5.9222777162291704   -0.0000000110410123
  -0.0000000128881301   -0.0000000129682736    7.4510406223093906
Ba Zn Cd S O
2 1 1 1 1
direct
  -0.0000000001148735   -0.0000000001985812    0.3774580824195814 Ba
   0.4999999999235784    0.4999999999291705    0.4431167659254892 Ba
   0.4999999999614127    0.4999999999665698    0.8174092102243520 Zn
   0.0000000003332624    0.0000000003391471   -0.0666475751645115 Cd
   0.4999999954362027    0.4999999954356332    0.0898981487491841 S
   0.5000000044944812    0.5000000044941723    0.1327043637809678 O
