Cs1 Rb1 Li2 Bi1 Sb1
1.0
   4.9648147785536025    0.0000001559017557    0.0000000091500602
   0.0000001271453002    6.3623789632790579    0.3474976596246434
   0.0000000047254743    0.3766473914966669    6.5591455249058193
Cs Rb Li Bi Sb
1 1 2 1 1
direct
   0.5000000218203345    0.5175898188729736    0.6110399265536256 Cs
  -0.0000000059238785   -0.0129784573394425    0.4301023550072308 Rb
   0.0000000074250782    0.1370015726367294    0.9283627836141638 Li
   0.4999999078390081    0.3336230112746159    0.1244786815910639 Li
   0.0000001071471018    0.5679794898823872    0.0792408714515551 Bi
   0.4999999622246903   -0.0562394274854652    0.9582293823883692 Sb
