Li2 Be1 Si1
1.0
   3.9993335922676705    0.0650483477127093   -0.2340976993810291
   0.0188421990507889    3.5839996173717568    0.9763598925244170
  -0.3811232316611800    0.8672790185430369    3.6520123080899753
Li Be Si
2 1 1
direct
  -0.0946731971002215    0.0661711137069053    0.8014838355476379 Li
  -0.0989251745268184    0.1116902933325822    0.7750506545221920 Li
   0.3445117588628915    0.3367672489383608    0.2409775159868952 Be
   0.3644675987673835    0.6709543502322707    0.5880319968181378 Si
