Cs1 Ag2 I2
1.0
   5.8074831897560095   -0.5559570444182720    0.1452672225402422
  -0.5897828634575104    8.0966632395310114    0.6627487750141794
   0.1457114800439789    0.5112150261945443    5.6193374761724630
Cs Ag I
1 2 2
direct
  -0.1199490498403248    0.5336985761389802    0.3437540371582774 Cs
   0.0193119548280408    0.0588717151887198   -0.0806853453067013 Ag
  -0.0205521542366619    0.0391631683436910    0.4217023380530335 Ag
   0.3282636431540921    0.2835772913924340    0.1324080819102084 I
   0.2228876085115784   -0.1795607595919426    0.7181788900675252 I
