Rb1 Na3 As1
1.0
   4.3108122681159351   -0.0000040895966137   -0.0000037146191164
  -0.0000016155855925    8.0698913290103533    1.1205638102606690
  -0.0000011849903521    1.1230337370273202    6.5906609812819852
Rb Na As
1 3 1
direct
  -0.0000000631634176    0.7007644100439395    0.0853695723754495 Rb
  -0.0000007025064951    0.0215753953332797    0.4913655042097296 Na
   0.0000004630475981    0.2305992057010163   -0.1281712978557056 Na
   0.0000007616641177    0.2114193251327884   -0.1048447488448832 Na
   0.4999995413234654    0.0158366634640031    0.8099669698356279 As
