Rb1 Na1 Ca1 Sb1
1.0
   6.0000000000000000    0.0000000000000000    0.0000000000000000
   0.0000000000000000    7.1583753078070878   -0.0000000100941097
   0.0000000000000000   -0.0000000089779691    9.6912743124865059
Rb Na Ca Sb
1 1 1 1
direct
   0.0000000000000000    0.5000000007013510   -0.0513306982898367 Rb
   0.0000000000000000   -0.0000000002373751    0.6524923767445445 Na
   0.0000000000000000   -0.0000000000063909    0.2451701375500087 Ca
   0.0000000000000000   -0.0000000000556910    0.9510171852054895 Sb
