Cs1 Rb1 Li2 Bi1 Sb1
1.0
   4.9327193502373703    0.0000008823291390    0.0000021827274203
   0.0000009261222632    7.8031796447899868   -2.3412516161173227
   0.0000013994593422   -2.0270508491331372    7.6022452420086957
Cs Rb Li Bi Sb
1 1 2 1 1
direct
   0.5000000443224922    0.5654339663625422    0.6717194138188938 Cs
  -0.0000000376243015   -0.1201750841699340    0.2830908268676248 Rb
  -0.0000000717189316    0.2448941172657229    1.0717411075676995 Li
   0.4999998731678672    0.1040514401165347    0.7849434320211953 Li
   0.5000002714037900    0.4767205356565776    0.1324080450037190 Bi
   0.4999999180661829    0.1162080365462009    0.1386081193720188 Sb
