Sc1 Cd3
1.0
   3.4914771384772396    0.0326454913692970    0.0000003045712130
   0.0326465181414067    3.4914809631034767    0.0000001229178263
   0.0000011530554352    0.0000006050962374    7.2485542440307409
Sc Cd
1 3
direct
   0.3747112862693468    0.3747113054481503    0.7500000053999287 Sc
  -0.1181343621558499   -0.1181346776928391    0.4962149642627489 Cd
  -0.1181350819316817   -0.1181352071155979    0.0037849933370456 Cd
   0.3615581662731354    0.3615585717516996    0.2500000322166529 Cd
