Ca1 Si1 Ag1 Pd1
1.0
   6.0000000000000000    0.0000000000000000    0.0000000000000000
   0.0000000000000000    4.0098764354505310   -0.0190597017384014
   0.0000000000000000   -0.0197093785163523    6.0177142989180537
Ca Si Ag Pd
1 1 1 1
direct
   0.0000000000000000   -0.0245005823522237    0.6069822298820519 Ca
   0.0000000000000000    0.5082071614691864    0.3557847820016680 Si
   0.0000000000000000    0.0063907101254177    0.1033851415862761 Ag
   0.0000000000000000    0.0099027176551604    0.6098518627865217 Pd
