K1 Li1 Mo1 F2
1.0
   5.9227020156668537    0.0401892656591418   -0.0201434803345557
   0.0403690921984581    6.0417344830550155   -0.0588522663691182
  -0.0194240500733979   -0.0558889030456646    6.6188131801049765
K Li Mo F
1 1 1 2
direct
   0.0121624403602587    0.4940657694797603    0.2521912235043168 K
   0.0038174809636221    0.0034287977167609    0.5466671631344695 Li
   0.0021506617358270   -0.0028870812190662   -0.0578353578783743 Mo
   0.2199237276096484    0.2622164839934781   -0.0060281524378890 F
  -0.0101093106316102   -0.0135789701675552    0.2652741214911624 F
