K2 Sc1 S1
1.0
   4.4505791737472702   -0.0725183391285286   -0.0031051667336882
  -0.0725181473914213    4.4505787531495393    0.0031031982889596
  -0.1590305196632628    0.1590292085208500    9.4957344899380765
K Sc S
2 1 1
direct
   0.2568845246104999    0.7431155996679175    0.6231240116897596 K
   0.6952314788416356    0.3047684997899702    0.2974614704970749 K
   0.1982659397400316    0.8017340133746781    0.0652721205687195 Sc
   0.1829510592548152   -0.1829511254338023    0.3066173921341623 S
