Na2 Sb2
1.0
   6.0000000000000000    0.0000000000000000    0.0000000000000000
   0.0000000000000000    6.2781316701919883   -0.8076025706607542
   0.0000000000000000   -0.6416742627342977    6.0174522754419746
Na Sb
2 2
direct
   0.0000000000000000    0.0066044085063683    1.0872639123254075 Na
   0.0000000000000000    0.3678719516170852    0.6361897075084801 Na
   0.0000000000000000    0.5323741437096944    0.1760497071399479 Sb
   0.0000000000000000   -0.1568505083581201    0.5484426641114345 Sb
