K1 Li1 Mo1 F1
1.0
   6.0000000000000000    0.0000000000000000    0.0000000000000000
   0.0000000000000000    6.0345311711280036    0.0000000005139501
   0.0000000000000000    0.0000000004649044    6.7077807323210639
K Li Mo F
1 1 1 1
direct
   0.0000000000000000    0.5000000000060950    0.2643872123953529 K
   0.0000000000000000    0.0000000000603400    0.5452052281743633 Li
   0.0000000000000000    0.0000000001823183   -0.0523962309791304 Mo
   0.0000000000000000   -0.0000000002279162    0.2477367891755342 F
