Cs1 Rb1 Li4 Sb3
1.0
   6.0119163982817376   -0.1340576460071456    0.0173580958287967
  -0.1488096887527592    5.8734543675612088    0.3388476228540427
   0.0096394127585161    0.3179339110645436    7.7464004021697104
Cs Rb Li Sb
1 1 4 3
direct
   0.2576436103522243    0.5101174853802353    0.4064718266878476 Cs
   0.1220519529728153   -0.0448382853876567    0.7301958741806455 Rb
   0.1404102140788795    0.4209357419727024    0.9393858380555259 Li
   0.4760675096075558    0.0127029577673891    0.1391553907050962 Li
   0.6142449858672170   -0.2218656553641839    0.7849543517438370 Li
   0.9089902138738433    0.0755049415641028    0.1798254297692950 Li
   0.7818225069592620    0.6052065154405643    0.0930074172237119 Sb
   0.6473100079939753    0.0449810702389485    0.4771096237497602 Sb
   0.6374300156652690    0.2972552058488920    0.8412302643855850 Sb
