Ba1 Cd1 Sn1 P1
1.0
   5.4840958314262096    0.6744584159895497    0.0149117808364999
   0.5212188711593628    5.1604956277790714    0.4118486985315194
  -0.1316972243227458    0.8074695890813310    4.3936293042145369
Ba Cd Sn P
1 1 1 1
direct
  -0.2399292975195877    0.5046524545778091   -0.1616569019279063 Ba
   0.2003912985310581   -0.1323401030177251    0.0510959428234347 Cd
   0.3432576858304315    0.2130617665448650    0.4321833498297494 Sn
  -0.0879236877749934    0.0399788956362725    0.4795886088598755 P
