Sr1 Si2 Pt1
1.0
   6.0000000000000000    0.0000000000000000    0.0000000000000000
   0.0000000000000000    4.1701949704321137   -0.0000000578644455
   0.0000000000000000   -0.0000000256161759    8.4163193038879509
Sr Si Pt
1 2 1
direct
   0.0000000000000000    0.0000000001471047   -0.0075587731018752 Sr
   0.0000000000000000    0.5000000093285453    0.2746716573371100 Si
   0.0000000000000000   -0.0000000096948655    0.3886301406357601 Si
   0.0000000000000000   -0.0000000000833776    0.6456869716597604 Pt
