Sr2 As1 N1
1.0
   4.1915861141609341   -0.0000035870007198   -0.1128412283107048
  -0.0000077496954204    5.5769992975519731    0.0000008206177182
  -0.1847719029706924    0.0000007414771103    4.7211677087844688
Sr As N
2 1 1
direct
   0.0512123598968958    0.2499994778103820    0.1934852266850223 Sr
   0.3412991859000054    0.7500002705604929    0.7223453788042274 Sr
  -0.2117386893816289    0.7499990460214105    1.2417799033008636 As
   0.3027351042890793    0.2500012130757588    0.7197424915627872 N
