Ba3 Te2 S1
1.0
   6.0000000000000027    0.0000000000000000    0.0000000000000000
   0.0000000000000000    5.7061754356418435   -0.0000843020178736
   0.0000000000000000   -0.0000637013872025    7.5577239260470641
Ba Te S
3 2 1
direct
   0.0000000000000000   -0.0000046401002551    0.6347281010660863 Ba
   0.0000000000000000   -0.0001353329840693    0.2623816973954681 Ba
   0.0000000000000000    0.0002493135609760    0.2620706024950669 Ba
   0.0000000000000000    0.4998762826565153    0.2630634971130991 Te
   0.0000000000000000    0.5000463614716973    0.2599411387632702 Te
   0.0000000000000000   -0.0000319836026870    0.9632339598830072 S
