Rb1 Na1 Li2 Bi1 As1
1.0
   4.6109345331455334   -0.0000016508760830   -0.0000030582036867
  -0.0000011975378846    6.5830848272993183    0.1810922443245750
  -0.0000024887861675    0.2120900214839438    5.7614099769559806
Rb Na Li Bi As
1 1 2 1 1
direct
  -0.0000001125901586    0.6267343446391830    0.5496723906000227 Rb
   0.0000002634655976    0.1508328627315685   -0.1484453528789065 Na
   0.4999998211674742    0.0258111873211664    0.5344641731251490 Li
   0.5000005232053921    0.3124382394178707    1.1520569170853718 Li
   0.5000004665171635   -0.1358063806126354    0.0636128369966387 Bi
  -0.0000009569178077    0.1360387516052540    0.3392540340819289 As
