Rb1 Na1 Ag1 As1
1.0
   6.0000000000000000    0.0000000000000000    0.0000000000000000
   0.0000000000000000    4.2248214657665066    0.1928072801957670
   0.0000000000000000    0.1953050099532981    4.2174144656532997
Rb Na Ag As
1 1 1 1
direct
   0.0000000000000000   -0.0262488781879589    0.4431825305115312 Rb
   0.0000000000000000    0.5099975529365697    0.0757370271152865 Na
   0.0000000000000000    0.5549327865482055    0.0166534198125644 Ag
   0.0000000000000000    0.0902955354605359    0.6346910243470588 As
