Rb1 Li2 Mg1 Bi1 Sb1
1.0
   6.0452755443995887   -0.0879957925717348   -0.0505204005779073
  -0.0951842309265564    4.5918057723921635    0.2084793326363405
  -0.0573726960171143    0.2366709496837985    7.3822367151000678
Rb Li Mg Bi Sb
1 2 1 1 1
direct
  -0.0040087998268873   -0.1627938095171133    0.9137939242774136 Rb
  -0.1424571528303863    0.1530812514273974    0.4295853592746753 Li
   0.4914494908540973    0.4142162435205837    0.8522867791092870 Li
   0.3606530267416805    0.4635116804332602    0.4071616521073330 Mg
   0.5111230173782698   -0.0018477415165183    0.1779745647051245 Bi
   0.4832404283385743   -0.0628416209932333    0.6212397269395646 Sb
