K2 Mg1 Bi1 As1
1.0
   5.1354679869442563    0.0000000029571821   -0.0000000007724676
   0.0000000029284468    4.6788310485334135   -0.0000000380904212
  -0.0000000031296443   -0.0000000363416305    7.4623042417762777
K Mg Bi As
2 1 1 1
direct
  -0.0000000002972392    0.0000000017411452    0.3663500018362693 K
   0.5000000003147410    0.5000000059127486    0.6743360829409131 K
   0.0000000008317009    0.4999999955697598    0.9831312715262513 Mg
   0.5000000000933064    0.4999999971672998    0.1703588274978250 Bi
   0.0000000001653340   -0.0000000000721379    0.8187858057962559 As
