Na1 Sc1 S1 O1
1.0
   6.0000000000000000    0.0000000000000000    0.0000000000000000
   0.0000000000000000    3.9133349533171886    1.2150919670289182
   0.0000000000000000    1.1799905765196994    7.4269390179567765
Na Sc S O
1 1 1 1
direct
   0.0000000000000000   -0.1560983936835779   -0.1667606469398330 Na
   0.0000000000000000    0.0186140997347981    0.2469496062353982 Sc
   0.0000000000000000    0.3598501304054853    0.4416640869238349 S
   0.0000000000000000    0.2232811517592681   -0.0218530415446057 O
