Li1 Bi1 Te1 Rh1
1.0
   6.0000000000000000    0.0000000000000000    0.0000000000000000
   0.0000000000000000    5.1769916531127755   -0.0000000220784919
   0.0000000000000000   -0.0000000161189073    7.8319786303022365
Li Bi Te Rh
1 1 1 1
direct
   0.0000000000000000   -0.0000000089718639    0.5811222235632655 Li
   0.0000000000000000    0.5000000111234145    0.4021859662182364 Bi
   0.0000000000000000    0.0000000004805009    0.2056855178921185 Te
   0.0000000000000000   -0.0000000025587762   -0.1068087161726590 Rh
