Cs1 Rb1 Sc1 S2
1.0
   5.3333442446804558   -0.5546524155114266   -0.7079087000694044
  -0.5546524305476581    5.3333457927906451    0.7079084103817854
  -0.6277843467915258    0.6277841168653544    7.1407434282006843
Cs Rb Sc S
1 1 1 2
direct
  -0.0039685103322731    0.0039684876848412   -0.0557142455597805 Cs
   0.3370369595946340    0.6629628444135851    0.5633544625262785 Rb
   0.6437776620043610    0.3562219251772726    0.3067344764137225 Sc
  -0.0633714339742674    0.0633720067551696    0.4267695243721373 S
   0.4198583217302897    0.5801417352758129    0.0274267604619018 S
