Ba1 Na2 Sr1 Bi1 P1
1.0
   5.9759324641469913   -0.0000001771611308    0.0000000482699691
  -0.0000001740136319    6.0663042022891966   -0.0741160263881973
   0.0000000441777807   -0.0740696774451019    6.2389458416244103
Ba Na Sr Bi P
1 2 1 1 1
direct
  -0.0000000009143693    0.6230496085537567   -0.0896300305473560 Ba
   0.0000862163254600    0.2457897028952450    0.5107539557412961 Na
  -0.0000860044277962    0.2454792167113013    0.5109159579174385 Na
   0.0000003136509204    0.3395451741947155    0.1729357260615722 Sr
  -0.0000005253410405    0.4773524117503294    0.2510549478165012 Bi
   0.5000000006202402    0.0025948841241284    0.1583844257159883 P
