Cs1 Na1 Cd1 As1
1.0
   5.2707418849138028    0.6444418265850476   -0.8724524794357285
   0.9171826639584402    6.5012581812873540    0.2176276678226893
  -0.9489909472746452    0.1666238705755392    4.5873677286076990
Cs Na Cd As
1 1 1 1
direct
  -0.1080083025300144   -0.2077668210684948    0.9705958531478304 Cs
  -0.1462395202334737    0.3689531470980343    0.5176068395770583 Na
   0.3554596568592052    0.2152442604378808    0.3036837159497401 Cd
   0.4545021806085351    0.3735694104062905    0.8373855954431643 As
