K1 Rb1 Sc1 S2
1.0
   4.5922769086830497   -0.0860015594722841    0.3371273323832091
   0.0210978740928718    6.3773516625115159    0.9988138121742636
   0.3337973914670002    0.9932465793955855    6.8034175702948732
K Rb Sc S
1 1 1 2
direct
   0.4289963811699052    0.0365939370217479   -0.0106392009787379 K
   0.3093245154675162    0.7053665883966537    0.5822230883478725 Rb
   0.8606734217283426    0.3895225997683133    0.2326916199063465 Sc
  -0.1430537274370425    0.0098917427811226    0.3127438122401187 S
   0.3773924089542222    0.5252921236840010    0.1162286850039698 S
