Ba3 Te2 S1
1.0
   4.2710919873532358    0.0000000061321096    0.0000000778682472
   0.0000000280297977    3.5766945185618866   -2.2851059240144664
   0.0000000301782977   -1.8177471720445340   16.8687172183942522
Ba Te S
3 2 1
direct
   0.4999999918071862    0.1818700118571718    0.1127317537373060 Ba
  -0.0000000002604959   -0.3755729768421776    0.7184703383219625 Ba
   0.0000000231802055   -0.1076244033016332    0.4003525332369746 Ba
   0.4999999931412514    0.7781447197489109    0.5673827158905118 Te
   0.0000000268063680    0.2638438216302941   -0.0437140083392751 Te
  -0.0000000208748780   -0.0105651717452558    0.2385266098049696 S
