Cs1 Rb1 Li2 Bi1 Sb1
1.0
   4.9659505990063524    0.0000005680523162   -0.0000007384351059
   0.0000004962944505    5.9807665477327374   -0.6288808889213671
  -0.0000004137639032   -0.3368807903666580    9.6245164859072840
Cs Rb Li Bi Sb
1 1 2 1 1
direct
   0.0000000132399171    0.5727091883998867    0.6642265015239303 Cs
   0.4999999545463694    0.0138795608786818    0.3485273898710211 Rb
   0.0000002477243652    0.0827648995282735    0.8863449055919507 Li
   0.4999999961087576    0.3790811194971551    0.9728658642541872 Li
   0.4999996015503418   -0.1327206578701616   -0.0308023393870850 Bi
   0.5000001892394403    0.0976068930331350    0.7199526493993585 Sb
