Cs1 Na1 As1 F2
1.0
   6.3275172091614138   -0.1905764897715657   -0.4981905712487665
  -0.1693713810241405    6.5873420019609163   -0.0386547538781658
  -0.4183751395731756   -0.0168907135873254    4.2067230517175709
Cs Na As F
1 1 1 2
direct
   0.0433406005316643    0.0981459379300777    0.5367270724147957 Cs
   0.5079231442735360    0.5205955522517599    0.0914502023593494 Na
  -0.0029012504125280    0.5877836000640045    0.0052527157589092 As
   0.3019757370727820    0.2573875949707338    0.1095332164083195 F
  -0.2013242441224407    0.3533683289273855   -0.0067781943127548 F
