Sr1 Si1 N2
1.0
   6.0000000000000000    0.0000000000000000    0.0000000000000000
   0.0000000000000000    5.5134774274795690    0.1949676274020191
   0.0000000000000000    0.1946207878225406    6.0674884707038128
Sr Si N
1 1 2
direct
   0.0000000000000000    0.3583854447988653    0.2154092206398548 Sr
   0.0000000000000000    0.0071103912543846    0.7310167667834115 Si
   0.0000000000000000    0.3326795473848171    0.2995320270089618 N
   0.0000000000000000   -0.0432293865731974    0.0040419852922042 N
