Cs2 Na2 Bi1 Sb1
1.0
   5.4628699164268477    0.0000000014105269   -0.0000000042219619
   0.0000000078378728    7.6299432650380048   -0.4536949794865169
  -0.0000000069645386   -0.4182406968911296    7.1415981151776275
Cs Na Bi Sb
2 2 1 1
direct
  -0.0000000034035463   -0.0810635777501008    0.7949835953755230 Cs
   0.4999999999631009   -0.2767497494199234    0.2565856037491862 Cs
  -0.0000000011626711    0.3741567719219378    0.9987787082590667 Na
   0.5000000004053270    0.2656721896406447    0.5304374009764741 Na
  -0.0000000005729076    0.1256866341743633    0.3243255922801597 Bi
   0.4999999999755634    0.1818757396372255    1.0777280944545218 Sb
