V1 B1 Pt1 O1
1.0
   6.0004667675800167    0.0064632856745352    0.0093381490966744
   0.0072189301013603    5.5427883142801191   -0.0049872640925730
   0.0091800118898390   -0.0549904739428873    5.0399944923945785
V B Pt O
1 1 1 1
direct
  -0.0042173667921265   -0.0550008171383109    0.5250637606339003 V
   0.0067567000652445    0.1868738539945430    0.1341957436286971 B
  -0.0033808515976873   -0.1285043983977877   -0.0338664990862107 Pt
   0.0107215183182578    0.2965233577703130    0.3583600027201972 O
