K1 Ba2 Te2 S1
1.0
   6.1189598770007771    0.0536867234762576   -0.0312591491536593
   0.0532081861187730    6.7652474446785771   -0.2024548411436801
  -0.0334149532128836   -0.2082261501113038    6.7389859849517517
K Ba Te S
1 2 2 1
direct
  -0.0088920476901794   -0.0284070184006459    1.0204744416962972 K
   0.0064092600912546    0.5100205642269010    0.2777456760898314 Ba
  -0.0151797698203028    0.3936205342056840    0.7337000408245875 Ba
   0.4874345019010288    0.2422131669059820    0.7597540623719036 Te
   0.0057848354570268    0.5110895600990760    0.2755483296495844 Te
   0.0547452192164310    0.8687581924562857    0.4816004538652148 S
