Rb2 Co1 Te3 Se1 S1
1.0
   6.0061928464463046    0.0000000000234534   -0.0000000002002194
   0.0000000000258212    6.0687776416025949    0.0116959471551065
  -0.0000000001822670    0.0117708072300788    6.1790765264398786
Rb Co Te Se S
2 1 3 1 1
direct
   0.0000000000105028    0.0022065901395500    0.3505483777580055 Rb
   0.4999999999517484    0.5009900537700729    0.6519821411457005 Rb
  -0.0000000000066265    0.2445506604493433    0.0079491572536082 Co
   0.4999999999674355    0.4993975349830045    0.1874255356806018 Te
   0.0000000000016497    0.0061338310487722    0.5278652040318971 Te
   0.0000000000143763    0.0023369301659463    0.2820046710656290 Te
  -0.0000000000088458   -0.1149948642167559   -0.0701108340117844 Se
   0.5000000000041265    0.0002802639698586    0.2591757341002826 S
