Cs1 Na1 Bi1 Ir1
1.0
   6.0000000000000000    0.0000000000000000    0.0000000000000000
   0.0000000000000000    6.6838078851168472   -0.0000000040397963
   0.0000000000000000   -0.0000000035280449    8.4541616662856462
Cs Na Bi Ir
1 1 1 1
direct
   0.0000000000000000    0.4999999999936121    0.0138034736941520 Cs
   0.0000000000000000   -0.0000000001442082    0.6711533045726206 Na
   0.0000000000000000    0.0000000000138594    0.2932460340262608 Bi
   0.0000000000000000   -0.0000000000431414   -0.0010868120171056 Ir
