Ba2 Zn1 Cd1
1.0
   4.0674261907224416    0.0000000157644987    0.0000001038950141
   0.0000000106631129    4.6621288722699283    0.0000000004848381
   0.0000000406638108    0.0000000123437939    8.9012699095413215
Ba Zn Cd
2 1 1
direct
   0.0000000022356473    0.5000000005971069    0.1214631201990726 Ba
   0.0000000026810266    0.5000000011200220    0.5825221384589341 Ba
  -0.0000000000494789    0.0000000001442219    0.8530185014876207 Zn
   0.4999999987275008    0.0000000000826046    0.3492492496035652 Cd
