Cs1 K1 Sc1 F2
1.0
   4.0224261154605916    0.1677888562359597    0.3850436238781355
  -0.0094215084106185    8.0677112141574199   -0.0720168354125255
   0.2105562952776524   -0.0657605495267327    8.3460994254095553
Cs K Sc F
1 1 1 2
direct
  -0.2482944145604848    0.5192445651080575    0.2677859551230576 Cs
   0.0816773027713120    0.0458152107044430   -0.0301261423985170 K
   0.2922450845200181    0.0180853281381644    0.3974101875921680 Sc
   0.2978075297624136    0.1989628636327646    0.2498134754344597 F
  -0.1950225082843750   -0.0388339689523838    0.3703844988801674 F
