Sr1 Si2 Ir1
1.0
   6.0000000000000000    0.0000000000000000    0.0000000000000000
   0.0000000000000000    4.1430556668546483   -0.0000000314732737
   0.0000000000000000   -0.0000000177125156    8.4423475268677208
Sr Si Ir
1 2 1
direct
   0.0000000000000000    0.0000000005643296    0.6210111007147464 Sr
   0.0000000000000000    0.4999999894010729    0.3519013077972302 Si
   0.0000000000000000    0.0000000006507366   -0.0116501079802579 Si
   0.0000000000000000    0.0000000098663828    0.2423877087524592 Ir
