K1 Rb1 Sc1 S2 O3
1.0
   6.5694290970882196    0.0637817236936104   -0.0577003974589254
   0.0637817224401687    6.5694289947483941    0.0577002506570937
  -0.0549586035697186    0.0549584564529626    6.3522324882060639
K Rb Sc S O
1 1 1 2 3
direct
   0.3878800640014236    0.6121199358739158    0.5342990194890930 K
  -0.0465113322789431    0.0465113307641848    0.4828470346833185 Rb
   0.6857510932652546    0.3142488722306773    0.2530568553062654 Sc
  -0.0853667012869240    0.0853666911850450    0.3371618515480426 S
   0.4104807744460300    0.5895192484756648    0.9675578341137304 S
   0.0081928708275295   -0.0081928699012219    0.1471531290309205 O
   0.7384254957047351    0.2615744940873412    0.2989900373581745 O
   0.5678147366378263    0.4321852933122129    0.8543192320095128 O
