Ba2 Te2 Se1 S1
1.0
   6.0000000000000018    0.0000000000000000    0.0000000000000000
   0.0000000000000000    5.9747676026851444   -0.0000000012718721
   0.0000000000000000   -0.0000000012782922    6.1051724450693898
Ba Te Se S
2 2 1 1
direct
   0.0000000000000000    0.0000000000025801    0.5100702257732249 Ba
   0.0000000000000000    0.5000000000363289    0.3347631097251627 Ba
   0.0000000000000000    0.4999999994197140    0.2677140818194004 Te
   0.0000000000000000    0.5000000001833252    0.2679769764552871 Te
   0.0000000000000000    0.5000000003680928    0.2684846928538229 Se
   0.0000000000000000   -0.0000000000369641    0.9367569144152114 S
