Rb1 Na1 Ag1 P1
1.0
   4.4719958611142463    0.1548133140006865    0.6423267351325580
   0.2152480308466451    5.2182386719001546    0.9936390762850186
   0.8365430369130393    0.8998111701593839    5.9990601486648814
Rb Na Ag P
1 1 1 1
direct
   0.1015247367479097    0.4371645199256011    0.2452747987499140 Rb
   0.5104901311410414    0.7629596902361647    0.6287011582056372 Na
  -0.1619032691466193    0.0765198881698183   -0.1253479352134018 Ag
   0.3628744050732525    0.2233558940786889    0.7628159840114495 P
