Na2 Si1 Rh1
1.0
   6.0000000000000000    0.0000000000000000    0.0000000000000000
   0.0000000000000000    5.4391512255088896    0.4743230852882213
   0.0000000000000000    0.3875832462148259    7.7075099731949539
Na Si Rh
2 1 1
direct
   0.0000000000000000   -0.0362482651924465    0.6503842872388698 Na
   0.0000000000000000    0.4214053575583656    0.1980461170020461 Na
   0.0000000000000000   -0.0355866473106339    1.0171774784994638 Si
   0.0000000000000000   -0.0995704498633130    0.2854011155086680 Rh
