Rb3 Sc1 S1 O3
1.0
   6.0794857678875207    0.0405931375876983    0.0108113563928047
   0.0405931383729995    6.0794861265981046   -0.0108112553955466
   0.0110329306229782   -0.0110328304881955    6.2172373183279053
Rb Sc S O
3 1 1 3
direct
   0.3385504723198038    0.6614477807912259    0.7329803586551622 Rb
   0.7079361174123113    0.2920639628883426    0.2873013345831764 Rb
   0.3330617481879903    0.6669390189952850    0.4823103389713227 Rb
   0.7098289490354392    0.2901710646534201    0.2438795905204071 Sc
   0.3090161656259316    0.6909848932151260    0.9020699231505284 S
  -0.0445287898740224    0.0445287877995626    0.1893502750636419 O
  -0.0286048611231205    0.0286048216522062    0.4271295534521399 O
   0.3414061989522319    0.6585936699195998    0.5609216197277053 O
