K1 Rb2 Br1
1.0
   6.0580925266696859   -0.0000000102310031    0.1228011416681447
  -0.0000000175899524    6.7815758085478750    0.0000001449601818
   0.1276029230771806    0.0000001222226705    6.2098748220546476
K Rb Br
1 2 1
direct
   0.1580129731927248    0.7499999809899940    0.9804955327918319 K
   0.1521844214621187    0.7500000244368873    0.0182060601153920 Rb
   0.2623800908838335    0.2499999932980121    0.3198221174532033 Rb
   0.0753405139735469    0.2500000011795235    0.8130253041769013 Br
