Ba1 Si2 Pt1
1.0
   6.0000000000000000    0.0000000000000000    0.0000000000000000
   0.0000000000000000    4.2245432128081397   -0.0000034199362791
   0.0000000000000000   -0.0000025260773390    8.6067543838353107
Ba Si Pt
1 2 1
direct
   0.0000000000000000   -0.0000001821308343    0.9831916208125591 Ba
   0.0000000000000000    0.5000001519720298    0.2776765858148543 Si
   0.0000000000000000    0.0000003409842660    0.3887127625451621 Si
   0.0000000000000000   -0.0000003110564703    0.6431300366004347 Pt
