Ca1 Al1 Ag1 I2
1.0
   7.4774375190019624    0.4290650429639614   -0.3237191161877483
   0.1646676451332200    4.4950818566145880   -0.5957730412713709
  -0.1879645282389544   -0.6810185532172131    5.6260513215344901
Ca Al Ag I
1 1 1 2
direct
   0.1144614494305122   -0.2316586872955633   -0.0443587362057610 Ca
   0.0439276802790174    0.4254986908325965    0.3569083034823972 Al
  -0.0533416395906665   -0.0018754576906820    0.5151431548291997 Ag
  -0.2237868568578854    0.3249753058615998    0.9567037093653491 I
   0.3742163585235733    0.7224401212997460    0.4892905846080257 I
