Na2 Ag1 Bi1 As1
1.0
   5.6966311173933732   -0.0000000015449825    0.0000000002739544
  -0.0000000014838566    5.9495946793543180   -0.4993686075018110
   0.0000000002088839   -0.5020530732316579    6.1191693294827587
Na Ag Bi As
2 1 1 1
direct
  -0.0000000000759023   -0.1007760620221427    0.7100737871598924 Na
   0.0000000000401285    0.1713455194399776    0.3893155937787741 Na
  -0.0000000002887233    0.5079297679493533    0.1202239663385749 Ag
   0.5000000002732609    0.0151155688177201    0.1962661283771406 Bi
  -0.0000000000012239    0.4908742021484649    0.1385135267845289 As
