Ba1 Na3 Bi1 Sb1
1.0
   6.3718488517007517   -1.0954716145996777    0.2032052464310967
  -1.0320124940295949    4.8772766080663263   -0.0040371525881383
   0.1346764605841337   -0.1467061716634729    7.1112250556498928
Ba Na Bi Sb
1 3 1 1
direct
   0.0695842746846208    0.0600369001165223    0.3266727991632281 Ba
   0.2508250955800638    0.6173809957847544    0.8122748725817162 Na
   0.6589830390447495    0.3455107741413728    0.5978965986498228 Na
   0.6647229272470475    0.3605207444718040    1.0819006124232515 Na
  -0.1130613223254966   -0.0495537518227708   -0.1670193455092961 Bi
   0.4723110137346135   -0.2467326613530245    0.3629514625557112 Sb
