Na1 Sr1 Bi1 As1
1.0
   3.6089232211596416    2.5293398782926904   -0.0000008500986718
   1.5548614417000843    8.5900599876876367    0.0000009863173329
  -0.0000003146211540    0.0000014432030895    4.5497625950402982
Na Sr Bi As
1 1 1 1
direct
   0.1357800773095348    0.1765352223358564    0.5000000196006786 Na
  -0.0033005513085580    0.5855600279529917   -0.0000000698270107 Sr
  -0.0969252439987352    0.0114246683900822    0.0000002220812802 Bi
   0.2977787151086232    0.7148490693272308    0.4999998240362251 As
