Ba3 Te2 S1
1.0
   5.8911339957923676    0.0000000062685727    0.0000000013399739
   0.0000000065496590    5.9109301071182703    0.0715298844308214
   0.0000000011150839    0.0718947414597728    5.9203314749545690
Ba Te S
3 2 1
direct
   0.5000000011685105    0.5184081708647179    0.2403244229893897 Ba
   0.5000000000946440    0.0056749093662585    0.4115733084532722 Ba
  -0.0000000001567910   -0.0018273706882182    0.7650970128177672 Ba
   0.4999999985737232    0.5591375497172383    0.2061741912706331 Te
   0.0000000001678957    0.5022435194886428    0.2491524864314875 Te
   0.0000000001615752   -0.0011867753257523    0.2570625767027520 S
