K1 Rb1 Sc2 S2 O2
1.0
   6.2419247330492320   -0.3433022884213108   -0.1021855493252453
  -0.3482074821762539    6.1047139249263331    0.0665093970301830
  -0.0904988014172578    0.0272459348703645    8.0826653169155200
K Rb Sc S O
1 1 2 2 2
direct
   0.3240189059664157    0.8512341640001193    0.5775003774311663 K
   0.6581046884090064    0.3700339973966408    0.9528203007764223 Rb
   0.2143040274817007    0.5732952854540040    0.1825072810689552 Sc
   0.1942140105273525    0.0714341911179799    0.1763562202602500 Sc
   0.3735024919747250    0.8488795079944870    0.9675697016543102 S
   0.4317230825413948    0.3337633963195329    0.3565029643655262 S
   0.0981261806553809   -0.1951169231302134    0.3044668835498883 O
   0.0393395969840933    0.3131433838725179    0.0953283551552675 O
