Ba3 Te1 S2 O2
1.0
   6.0064032889930052   -0.0000000007099744   -0.0000000042946408
  -0.0000000007306258    6.1227353416384123    0.0016912444517748
  -0.0000000044826082    0.0014556097609051    7.3622753656317546
Ba Te S O
3 1 2 2
direct
  -0.0000000000261022    0.5011237675010964    0.4220790197709943 Ba
   0.5000000000102027    0.0033005427235182    0.7151858798914987 Ba
   0.4999999997973535   -0.0186293340896216    0.1066308143447266 Ba
   0.0000000001279654    0.4980347539125986    0.2492527532804284 Te
   0.0000000000991451    0.0004830927729988    0.7929106831436868 S
   0.5000000001443856    0.0232953717418633    0.2132078530970470 S
   0.5000000000246255   -0.0094488055525077    0.4293215755474048 O
   0.4999999999698224    0.5018406109374974    0.4171904168243042 O
