Sr1 Si2 Rh1
1.0
   6.0000000000000000    0.0000000000000000    0.0000000000000000
   0.0000000000000000    4.2024138240318241   -0.0000010508697975
   0.0000000000000000    0.0000050305663979    6.8536688814442304
Sr Si Rh
1 2 1
direct
   0.0000000000000000    0.4999998683067589    0.0836549124348873 Sr
   0.0000000000000000    0.4999997984816481    0.5675068180351647 Si
   0.0000000000000000    0.0000000762993929    0.7432932823111574 Si
   0.0000000000000000    0.0000002591068337    0.4005459857918499 Rh
