Cs1 Na1 Cu1 As1
1.0
   6.7413875880735077    0.0858916227930897   -0.0206040551114929
   0.0424052394917167    4.8655014199061561   -1.3887226468827234
   0.0450162163575767   -1.4952414463408765    4.9492093451148724
Cs Na Cu As
1 1 1 1
direct
  -0.0131789752980629   -0.1077044848287620    0.2467800554342980 Cs
   0.4416857226159099    0.5102758658129329    0.5787039518832984 Na
   0.6470733080760077    0.1321491291852682   -0.1328731113538803 Cu
   0.3231789473558775    0.2152795169097213    0.9247120790523585 As
