Cs1 Na3 Bi1 Sb1
1.0
   5.2895803400605406    0.0000000025870349   -0.0000000426583828
   0.0000000037766446    6.4346615701734642   -1.0397365823591327
  -0.0000000399417890   -1.2139139355323567    7.9330466003942579
Cs Na Bi Sb
1 3 1 1
direct
  -0.0000000051554676   -0.2773039701568248    0.5801752615882687 Cs
   0.4999999988842870    0.5336088406671512    0.9498763188587827 Na
   0.0000000007475220    0.2808453570222668    0.0360269462679458 Na
   0.4999999982262069    0.1003415294922607    0.3172274979220900 Na
   0.0000000040850320    0.8301384304924567    0.1057380699152231 Bi
   0.4999999999649316    0.0028178157551038    0.9118968972700777 Sb
