Cs1 Rb1 Sc1 F1
1.0
   3.6321028825317350    0.7835828126573081   -0.5922607494099816
   0.4448087442221001    9.0833013195328967   -1.5215329062974972
  -0.3977245290744966   -1.2008530203070713    6.4786100661198791
Cs Rb Sc F
1 1 1 1
direct
  -0.1402191060205843   -0.0839127428297208   -0.1893710376111016 Cs
   0.0586949247872009    0.4644237107103910    0.0502389875882230 Rb
   0.1370353392499063    0.1981384911709405    0.4455596991837695 Sc
   0.1859398400197387    0.1713505448097261    0.7338193583945306 F
