Cs1 Na1 Bi1 F1
1.0
   3.0577295589811246   -1.1001402235206048   -0.9122768950211670
  -0.7968814403987803    9.2697583795871434   -0.1868342359234599
  -0.7627395941577639   -0.2001323907702352    4.8282959594608563
Cs Na Bi F
1 1 1 1
direct
   0.0523404312809910    0.4745625747521516    0.2920220433285172 Cs
   0.3313071525786292    0.1077485210735035    0.6740047507684185 Na
  -0.2175929856577027   -0.1449706621408048    0.0150729718379237 Bi
   0.0868064102310858    0.2912785451314328   -0.2310998051761751 F
