Cs1 Rb1 Li2 As1
1.0
   4.7736132429826519   -0.0000031056244193    0.0000019531562657
  -0.0000023102352332    7.9619648078955727    2.4307449868877349
   0.0000024327913385    2.1948321968424995    6.4602513375942774
Cs Rb Li As
1 1 2 1
direct
   0.5000008661937242    0.5733015543093529    0.3416239038451186 Cs
   0.0000007808634431   -0.0262989177203708    0.5948004907515626 Rb
  -0.0000010802205218    0.1061022540094071    0.9807630625245866 Li
   0.5000001032500532    0.2882840302138306    0.0168927898518518 Li
   0.4999993205374785    0.0731130893275298    0.8965787498574976 As
