Rb1 Mg1 Bi2
1.0
   3.9459567386428551   -0.0000000077005723   -0.0000000023216762
  -0.0000000054703395    5.3528570350234599    0.0000032818570187
  -0.0000000005151018    0.0000024245300439    7.6686854630440378
Rb Mg Bi
1 1 2
direct
   0.0000000005923696    0.0000001246790865    0.5927263192151520 Rb
  -0.0000000000720837    0.4999997302800652   -0.0238524129540784 Mg
   0.4999999993632689    0.5000006210437488    0.2865473989523026 Bi
  -0.0000000009574346   -0.0000004803250986    0.1190646925027997 Bi
