Ba3 Te1 Se1 S1
1.0
   5.3372023296164635   -0.0000000009455161   -0.0000000050887311
  -0.0000000009392725    5.7823937401514369    0.0083704288457927
  -0.0000000049620097    0.0084079722152347    5.7379243949522287
Ba Te Se S
3 1 1 1
direct
   0.4999999990463205    0.4708577391877067    0.3448040076267488 Ba
  -0.0000000011016650   -0.0001238087731264    0.7447185155039990 Ba
   0.4999999991441633    0.5208549703213590    0.3422590766240895 Ba
   0.5000000035609868    0.5032454756383204    0.5036582669945594 Te
   0.4999999999641371   -0.0004430585371719    0.0139505762658701 Se
   0.4999999981796915    0.5068636818163064    0.5816985580683524 S
