Li1 Ti1 Tl1 Au1
1.0
   3.6946267362433369    0.0046629550389237   -0.0234099716698331
   0.0046602488142303    3.6946092016424954   -0.0234110996090037
   0.0833606472245659    0.0833607961075148    5.6040553341248227
Li Ti Tl Au
1 1 1 1
direct
   0.3661629931109356    0.3661626949411201    0.2716427688455524 Li
  -0.1284954475944610   -0.1284955919436390   -0.0004678445729420 Ti
   0.3783497367176290    0.3783495640856211    0.7514401878141552 Tl
  -0.1160172721649209   -0.1160166611818203    0.4773849040004846 Au
