K2 Sc2 S1 O3
1.0
   5.9503635199590503    0.0111419685635815   -0.0017111390786347
   0.0111419806894089    5.9503701665363735    0.0017109716649046
  -0.0016084967477298    0.0016083346272093    6.2227648215483731
K Sc S O
2 2 1 3
direct
  -0.0009513323323584    0.0009513311073446    0.7415251047081559 K
   0.3080683843769578    0.6919316191559108    0.2712406115520832 K
   0.6868910122836309    0.3128831668208540    0.2588752540105933 Sc
   0.6872586399822734    0.3129676477967833    0.2597829715930098 Sc
   0.3468821945811132    0.6531177734656970    0.8606856292107390 S
  -0.0122479593061873    0.0122440687765176    0.0990792654253420 O
   0.3367883488122147    0.6632116455800066    0.6106459205466205 O
  -0.0193562877507983    0.0193597452805577    0.3696052354307037 O
