Ba3 Te2 S1
1.0
   6.1058580782664400   -0.1824729716582711    0.0002746001421988
  -0.1824729714856083    6.1058580857773865   -0.0002745938853655
   0.0003297002990213   -0.0003296939906270    6.0831248354158625
Ba Te S
3 2 1
direct
   0.3305208525356556    0.6694791460330828    0.7684383121440121 Ba
  -0.0019522686906671    0.0019522693221263    0.3195653811173716 Ba
   0.6669105744006414    0.3330894278506846    0.2781298745127711 Ba
   0.3246722236284106    0.6753277741879514    0.2692363360142317 Te
   0.0303429918823931   -0.0303429942976012    0.2495006615464586 Te
  -0.0171613733992715    0.0171613768055755    0.2801014319512710 S
