Cs1 Rb1 Sc1 S2
1.0
   5.4041623014858260   -0.6012665563730364   -0.7767146278236599
  -0.6012665689694554    5.4041606032987790    0.7767141444504968
  -0.6602488942532618    0.6602485381782293    6.9624361268246666
Cs Rb Sc S
1 1 1 2
direct
  -0.0071104902646478    0.0071104647211831   -0.0507601957448615 Cs
   0.3333720673079983    0.6666279873474928    0.5385511961743671 Rb
   0.6517207637545523    0.3482792822452841    0.2975710087269504 Sc
  -0.0606245870613879    0.0606245223268130    0.4268290115760172 S
   0.4159752427759197    0.5840247450533832    0.0210569797959910 S
