Ba2 Cd1 Sb1 As1
1.0
   6.2626431161950293    0.0000000025981759   -0.0000000010399841
   0.0000000027877915    4.8334959574030716   -0.0000000198996101
  -0.0000000007397634   -0.0000000152071924    6.4152000408827821
Ba Cd Sb As
2 1 1 1
direct
  -0.0000000070967007   -0.0000000009618982    0.6589410303748998 Ba
   0.4999999989029819    0.4999999954413094    0.2824623528125322 Ba
   0.0000000031085417    0.5000000068867172    0.0317144458627407 Cd
   0.4999999989600385   -0.0000000000025310    0.8508664769177997 Sb
  -0.0000000006917622    0.0000000000460043    0.1773846935779019 As
