Rb1 Al1 F2
1.0
   6.3018587505136434   -0.2324139146402665    0.0358121216238323
  -0.1866535799532032    5.4756210555197766   -0.0444345928311082
   0.0112288612517570   -0.0827095501526948    4.3208887634498501
Rb Al F
1 1 2
direct
   0.3271995023579055    0.1027570093226932    0.5009906764773440 Rb
  -0.1048585347530270    0.0096509951614123   -0.0022202908400162 Al
   0.0812851044022208    0.2711791840663505    0.0043572357391556 F
   0.1132429245078051   -0.1815851710847800    0.9864643889525729 F
