Ba1 Li1 Re1 O2
1.0
   4.5408344636219233    0.0135056508768546   -0.2241895861893031
  -0.0063363582494402    5.3253526782444940    0.1374633133932958
  -0.2452243098339682    0.1273590723963162    5.4755496310237302
Ba Li Re O
1 1 1 2
direct
  -0.2447385339913637    0.5168095886633346    0.0981026797885497 Ba
   0.0601795658065017   -0.0316274395096493    0.6113949383811175 Li
   0.2079306459713660   -0.0301552294070359    0.0920199412709336 Re
   0.2551726783564262    0.7122167286119455   -0.1147346878824381 O
  -0.0533433498873636    0.0883603505769919    0.2951991346036919 O
