K1 Rb1 Li4 Sb2
1.0
   5.4422462829974432    0.0000000016393250    0.0000000114909847
   0.0000000023224869    6.4434659373064811   -0.1966386702341925
   0.0000000100889858   -0.1987707587205898    6.9714122741739466
K Rb Li Sb
1 1 4 2
direct
   0.0000000006634866    0.0446143031782255    0.5727403303982924 K
   0.4999999992618364    0.5886024589023038    0.5415014003165937 Rb
   0.0000000008845137    0.4127534196898577    1.0254914580398644 Li
   0.4999999952602998    0.1059647380837838    0.9278994043648152 Li
   0.5000000006713704    0.1184978759509517    0.8834041290078939 Li
   0.0000000000287145   -0.0935458564633328    0.0969355555810556 Li
   0.4999999998400501    0.5070641403435122    0.0282349684604449 Sb
   0.5000000043260937    0.0748809211803921    0.2806107339365706 Sb
