Sr1 Si2 Rh1
1.0
   6.0000000000000000    0.0000000000000000    0.0000000000000000
   0.0000000000000000    4.0203877897647198   -0.0000000539813749
   0.0000000000000000   -0.0000000344101596    8.1492923742535233
Sr Si Rh
1 2 1
direct
   0.0000000000000000   -0.0000000046009291    0.6542299885854248 Sr
   0.0000000000000000    0.5000000276432781    0.1864362367978973 Si
   0.0000000000000000   -0.0000000092692939    1.0259382608516958 Si
   0.0000000000000000   -0.0000000143532066    0.3269785055733605 Rh
