K1 Li1 Mo1 F2
1.0
   5.9195303705443632    0.0403861205380813   -0.0195526761978801
   0.0405667876468864    6.0464038670440949   -0.0599833110452389
  -0.0188291016362672   -0.0569248192229268    6.6247909434523606
K Li Mo F
1 1 1 2
direct
   0.0125216532367061    0.4940001353642907    0.2532624050753535 K
   0.0040748027787147    0.0037057940144474    0.5489925002933603 Li
   0.0018583770550115   -0.0032424704970800   -0.0545177928540100 Mo
   0.2193005951073021    0.2622706579362378   -0.0057213921158811 F
  -0.0098134280214172   -0.0134531168661021    0.2659812690079625 F
