Ba2 Te2 Se2
1.0
   6.3977601637723218    0.6278046660910599    0.2489950942921094
   0.6682690386755586    5.1970085521769320    0.8782433730653845
   0.1513297072324493    0.8906864543137056    6.0853150642271778
Ba Te Se
2 2 2
direct
   0.5663999593441496    0.7855572754027726    0.0140102633590868 Ba
   0.1105224752099640    0.6870168177993562    0.5749588351950827 Ba
  -0.0118562629745852    0.0742470637598292    0.9648996153693215 Te
   0.2521745373695908    0.3109689817032382    0.1894796562265062 Te
   0.6167682801130586    0.6563623409446274    0.5516544108893958 Se
   0.5656760256013766    0.7863695188447996    0.0133362161330128 Se
