Cs1 Rb1 Na3 As1
1.0
   5.9435912841414495   -0.0000000363729589   -2.9882133739416203
  -0.0000000168146921    5.2088149239916168    0.0000000287851986
  -2.4351963982599627    0.0000000305541843    9.9005500545164793
Cs Rb Na As
1 1 3 1
direct
  -0.0606559228065982   -0.0000000069334534    0.5492404593722316 Cs
  -0.3608306856894538    0.5000000047047851   -0.1903398264360633 Rb
   0.0797528868669593    0.5000000233234370    0.2781735909897562 Na
   0.1792264465886885   -0.0000000141984754    0.0961787162426310 Na
   0.4878780271960521    0.5000000087666086    0.0957875543519811 Na
   0.7224932472607627   -0.0000000012073690    1.1032374824005258 As
