K1 Na1 Ca1 F2
1.0
   3.5228963675934408    1.4830467510720124    0.4814988767573519
   1.0085501619414305    7.9152174025092465   -0.3848237010215305
   0.2208708215308434   -0.1567168367577206    8.2274294927456477
K Na Ca F
1 1 1 2
direct
   0.0020608015605526    0.5611256819934245    0.2291819420265869 K
   0.0615696526166555    0.0847544166412007    0.4220154564526595 Na
  -0.0843399382494513    0.0365329797833601    0.0096526600099298 Ca
   0.2379424827361170    0.1759177800005050    0.1121882713249044 F
   0.0111799960359028   -0.1150568610500941    0.2270506883417932 F
