Ba1 Zr1 B1 O1
1.0
   5.9772803593560013    0.0327342764741700   -0.0624275949276757
   0.0527886871152395    3.1987460179351626    2.0151338385975301
  -0.0546051780039982    1.0403835992239150    9.0444556449763169
Ba Zr B O
1 1 1 1
direct
  -0.0369178381753931   -0.1290206501985147    0.0095360401130266 Ba
   0.0942166861688133    0.1091262458888265    0.5178573194619307 Zr
  -0.0052747493258723   -0.1324196341189619    0.3478868054366205 B
  -0.0169190985022774    0.7288770401053813    0.7722898578201209 O
