Ba2 Cd1 Sb1 As2
1.0
   4.7241943856680964    0.0000000064244098   -0.0000001599707917
   0.0000000064361843    5.4530454162958630   -0.0000000034646172
  -0.0000001136423893   -0.0000000015726655    7.4714989859131213
Ba Cd Sb As
2 1 1 2
direct
   0.0000000311431497   -0.0000000012524036    0.7257849911768682 Ba
   0.5000000072656960    0.5000000006515638    0.3228497164828842 Ba
  -0.0000000215726424    0.4999999998944222    0.0053863517372164 Cd
   0.5000000150496753    0.4999999988562394    0.7839464101486150 Sb
  -0.0000003456636317    0.0000000013186931    0.2447192787092251 As
   0.5000003175885581   -0.0000000000983426    0.0665542585383115 As
