Ba2 Te1 Se2
1.0
   4.4567102675316654   -0.0257116474905001    0.0518348727580872
  -0.0392096088906988    6.3609332177315716    0.2948463636333105
   0.4052512703180856    0.2612195689153186   13.2126680045698510
Ba Te Se
2 1 2
direct
   0.3946650748926687   -0.0891295115945816    0.7231484817069552 Ba
  -0.0780397159543870    0.4350889295127197    0.5404744093201661 Ba
   0.0527526174437001    0.2829825725091563    0.1068366741150777 Te
  -0.0826467156367437   -0.0664601811306790    0.5511762399674240 Se
   0.0294897413115806    0.1393001925232129    0.1304231928666735 Se
