Ba3 Si1
1.0
   6.4993813971564993    0.1074691968214423    0.1100923912140742
   0.1248371405799910    6.4907661541046675   -0.0163692337943596
   0.1290505396540315   -0.0071533673707482    6.4947141957263170
Ba Si
3 1
direct
   0.0662760662750153    0.6973120059807967    0.8851416284903539 Ba
   0.5614613524810269    0.2033517862440521    0.8838181108399199 Ba
   0.0660397878970341    0.2047074453001630    0.3776094449786293 Ba
   0.0626827974872722    0.1977427553781475    0.8782548184248458 Si
