Cs1 Au2 I2
1.0
   6.2187642224157420    0.1906761710820901   -0.0852259220980937
   0.1721766292567672    7.3586169930164900   -0.4751860479064846
  -0.0793119150631871   -0.4456597929766536    6.4899946585369364
Cs Au I
1 2 2
direct
  -0.0418084851574337   -0.0253328169842365    0.1499820779220513 Cs
  -0.0550983273466038    0.4701107963888211    0.0283075217958760 Au
  -0.0350029941740157    0.5213938531411670    0.4773664725372150 Au
   0.0670282662647366    0.2303274990255564    0.6918147679674364 I
   0.3203515473338043    0.5428806685982300    0.2537891610063849 I
