Rb1 Al1 F2
1.0
   5.6016334206840375   -0.0373500975210865   -0.0000006274526079
  -0.0287236371197367    6.2196815451690597   -0.0000010002656549
  -0.0000008602831407   -0.0000015753853701    4.0506295601197433
Rb Al F
1 1 2
direct
   0.0371465178933060    0.4999581295968889    0.5000002573894434 Rb
  -0.0129681190023134    0.0038027902050219    0.0000030222477272 Al
   0.1854513492403120    0.2309045778011016   -0.0000001895387566 F
   0.0152322504443494    0.0011954965164050    0.4999969075807627 F
