Rb1 Na1 Li2 Bi1 P1
1.0
   5.2753669589081404   -1.1126269062582215    0.6769292934733093
  -0.7588323363788991    7.1273595628815807   -0.2459323076931106
   0.4785830354513432   -0.2831441809389992    5.4755134990954124
Rb Na Li Bi P
1 1 2 1 1
direct
   0.3290171199272311    0.7108699440973596    0.9836047999592321 Rb
  -0.0203671563147603   -0.1224471520093829    0.5466442240006161 Na
  -0.1743728639189600    0.2696051956035884    0.6518451400930600 Li
   0.4537173614176717    0.2614310171569067    0.3089650514894293 Li
  -0.0421558352768786    0.1601298933148122    0.1122389256863850 Bi
   0.5382223818175802   -0.0202829186386709    0.4694778704058116 P
