Ba2 Te1 S1
1.0
   6.0000000000000000    0.0000000000000000    0.0000000000000000
   0.0000000000000000    5.5114716150211729   -0.0000000297295446
   0.0000000000000000   -0.0000000288872084    5.8325476860418703
Ba Te S
2 1 1
direct
   0.0000000000000000    0.5000000063080351    0.9427082911296559 Ba
   0.0000000000000000    0.5000000075000433    0.3495460760625148 Ba
   0.0000000000000000    0.4999999863052181    0.2799513721464182 Te
   0.0000000000000000   -0.0000000000658018    0.9071472583818091 S
