Sr1 Si2 Pt1
1.0
   6.0000000000000000    0.0000000000000000    0.0000000000000000
   0.0000000000000000    4.1701239163088655    0.0000000336992223
   0.0000000000000000    0.0000000298427609    8.4163283380443765
Sr Si Pt
1 2 1
direct
   0.0000000000000000   -0.0000000003095238   -0.0075219593656063 Sr
   0.0000000000000000    0.4999999886109368    0.2747297180883670 Si
   0.0000000000000000    0.0000000066525437    0.3886751347188354 Si
   0.0000000000000000    0.0000000049044344    0.6457231062971632 Pt
