Na1 Sr1 Si1 O1
1.0
   6.0000000000000000    0.0000000000000000    0.0000000000000000
   0.0000000000000000    5.8316926196674679   -0.0500795922343373
   0.0000000000000000   -0.0494382604300448    5.9858610569538309
Na Sr Si O
1 1 1 1
direct
   0.0000000000000000    0.2454163766888377    0.2618997502445869 Na
   0.0000000000000000    0.2677083583972905    0.7240658383526328 Sr
   0.0000000000000000    0.1951153806694730    0.2461561012378901 Si
   0.0000000000000000    0.0050588695775997    0.0178783109104147 O
