Cs1 Na1 Ag1 P1
1.0
   5.4645453617334745    0.0000013853096930    0.2557067102420569
   0.0000017789909785    4.6276569255442688    0.0000024355854012
   0.3304937852300365    0.0000021145105321    5.7030978397864303
Cs Na Ag P
1 1 1 1
direct
   0.1046082329043971    0.4999999726316476    0.1930497348542308 Cs
   0.3719958731039194    0.0000000497237743    0.6665812759365495 Na
   0.7279686464336973    0.4999999737696100   -0.2740154799607303 Ag
  -0.1339327501303771    0.0000000078935382    0.7317264584862525 P
