Na2 Ag1 Bi1 As1
1.0
   4.6974380341533761   -0.0434135338530231    0.0304445049919516
  -0.0642532824431650    4.9947209996535520   -0.6063242217807647
   0.0927121169084442   -0.5695929851284907    5.9252826349858410
Na Ag Bi As
2 1 1 1
direct
  -0.0205607040341392    0.3359006009385251    0.7957553488359868 Na
   0.4315833267297139    0.3937060323454973    0.3292429551200038 Na
   0.4451318277574547   -0.1747372988083984    0.9923883742587837 Ag
  -0.0697076651658015   -0.1438786305676850    0.2861892266446489 Bi
   0.4650162130073470   -0.0524847025645612    0.5960490820344052 As
