Ba1 Si2 Pt1
1.0
   6.0000000000000000    0.0000000000000000    0.0000000000000000
   0.0000000000000000    4.2311482290779558   -0.0000025225930289
   0.0000000000000000   -0.0000051031448635    7.1636900652791651
Ba Si Pt
1 2 1
direct
   0.0000000000000000    0.5000004772767108    0.0888069242315306 Ba
   0.0000000000000000    0.4999993429862234    0.5784699618305699 Si
   0.0000000000000000   -0.0000007307705533    0.7410423453068860 Si
   0.0000000000000000    0.0000009185968777    0.4059387723774592 Pt
