Be1 Si2 Pt1
1.0
   6.0000000000000000    0.0000000000000000    0.0000000000000000
   0.0000000000000000    4.2171831056263205   -0.0265431879888901
   0.0000000000000000   -0.0210100609868108    5.0779916936497598
Be Si Pt
1 2 1
direct
   0.0000000000000000    0.0127426048991919    0.1002397549973634 Be
   0.0000000000000000    0.4972425544065280    0.1782637373718207 Si
   0.0000000000000000    0.0054277713148191    0.6020877464172738 Si
   0.0000000000000000   -0.0154129302432362    1.0439587703440665 Pt
