Ba2 Te1 S2
1.0
   5.9999999999999982    0.0000000000000000    0.0000000000000000
   0.0000000000000000    6.0956321784130703   -0.0985053069542727
   0.0000000000000000   -0.0950392535380377    5.6740214746299173
Ba Te S
2 1 2
direct
   0.0000000000000000    0.0105572894107531    0.6726047066261320 Ba
   0.0000000000000000    0.4927386942175478    0.3458869663682494 Ba
   0.0000000000000000    0.5027891094735651    0.5146425209784385 Te
   0.0000000000000000    0.4939431568562347    0.2707373146445933 S
   0.0000000000000000    0.1813817499487864    0.1783574979753060 S
