Na2 Li2 Bi1 Sb1
1.0
   4.9971997165918758   -0.0000003751703606    0.0000004367508002
  -0.0000003358116413    5.2787081319062983   -0.2912700005698711
   0.0000003231687517   -0.2818596466741362    6.5271644341581627
Na Li Bi Sb
2 2 1 1
direct
  -0.0000000247964934   -0.0328890026418760    0.3405195186139092 Na
   0.5000000139026831    0.5456215792069227    0.6287822689650765 Na
  -0.0000001508100135    0.3942921307850697    0.9603110736947668 Li
   0.4999998197767302    0.0939860941304640   -0.0365558072599925 Li
   0.5000001278439032    0.6186751868385328    0.1415115518378858 Bi
   0.0000002140804427   -0.1262560103002127    0.8365733847843368 Sb
