Cs1 Na1 Si1 Sb1
1.0
   6.0000000000000000    0.0000000000000000    0.0000000000000000
   0.0000000000000000    5.5893650708145977   -0.2496957645930193
   0.0000000000000000   -0.1500106144155662    9.7122273970720414
Cs Na Si Sb
1 1 1 1
direct
   0.0000000000000000    0.0327084597365385    0.9615862048125815 Cs
   0.0000000000000000    0.4051497258838124    0.4330389266949479 Na
   0.0000000000000000   -0.1076672468201931    0.3181927842893654 Si
   0.0000000000000000   -0.0801909412707192    0.5771840827636922 Sb
