Cs1 Na2 As1
1.0
   6.0000000000000000    0.0000000000000000    0.0000000000000000
   0.0000000000000000    5.2426742816684850   -0.0239758247303522
   0.0000000000000000    0.0101352508643767    9.4318022097075964
Cs Na As
1 2 1
direct
   0.0000000000000000   -0.1022492545305456    0.6878127247738041 Cs
   0.0000000000000000    0.4167784072455843    0.2730558296192034 Na
   0.0000000000000000   -0.0766367497005805    0.0811928132585552 Na
   0.0000000000000000    0.4238215980275369   -0.0420613585035059 As
