Ba2 Te1 Se3
1.0
   7.0949010969342492    0.0000021112797536    0.0196170196324107
   0.0000033603580867    4.6224691606238739    0.0000008694371872
   0.0111728722526169    0.0000006816319853    7.1236818876632508
Ba Te Se
2 1 3
direct
   0.0633264228319991    0.2500001900178023    0.8194382489767650 Ba
   0.4205614122418432    0.2500001333820751    0.3015602571833400 Ba
  -0.0914318516090273    0.2499990908927991    0.3439380120322983 Te
   0.3358586286839954    0.7499999204387765    0.6226447350648375 Se
   0.4250976489958604    0.7500004424789953    0.9588252089828667 Se
   0.0388337325742518    0.7500002162343377    0.1506305461581497 Se
