K1 Rb1 S3 O2
1.0
   6.0125108661130326   -0.0090204542219377    0.0002448858333663
  -0.0090204542216397    6.0125108613694973   -0.0002448927697589
   0.0001585361243210   -0.0001585433996130    6.2561754862960779
K Rb S O
1 1 3 2
direct
  -0.0003080745421604    0.0003080744550230    0.3089428730309973 K
   0.3415243127312631    0.6584756877626869    0.4760523787806933 Rb
  -0.0027077156165111    0.0027077166878468    0.3593346474223339 S
   0.3348419066135843    0.6651580921897916    0.9275531653271429 S
  -0.0025584966666220    0.0025584964026573    0.6273544995723375 S
  -0.0001625281681731    0.0001625253621367    0.0605769786880246 O
  -0.0039634009103140    0.0039634055708372    0.3306914650080465 O
