Na2 Cu1 O1
1.0
   4.8057147928617914   -0.0000000290600566    0.2254941555458288
  -0.0000001058691931    3.6187806659443353   -0.0000014757215309
   0.2030138098301652   -0.0000011980189634    4.3085812181606205
Na Cu O
2 1 1
direct
   0.4307894528698238    0.7500001564058320    0.4463255486602284 Na
  -0.0046695701516886    0.7500001067449873   -0.0701082247052912 Na
   0.4459613361579280    0.7499996339671392    0.3777671964839583 Cu
   0.2048047853084999    0.2500001013924093    0.8906844786818811 O
