Cs1 Rb1 Li3 Sb1
1.0
   4.9445901925722051   -0.0000369919457200   -0.0000424196715301
  -0.0000360253693800    6.3323287711869547   -0.6663679319243105
  -0.0000344335622584   -0.6095552781059395    7.3067506770251427
Cs Rb Li Sb
1 1 3 1
direct
   0.5000020669928501    0.5505703202125951    0.6693291790407518 Cs
  -0.0000025150014494   -0.0399477887530283    0.3372768737088874 Rb
  -0.0000037563691706    0.3548533593615448    0.0478402140081831 Li
   0.5000135740592735    0.0772996542528750    0.9451958788325825 Li
  -0.0000036945840386    0.4015152614366373    0.0354863482579835 Li
   0.4999943263011826    0.4674641840430267    0.1709675091729601 Sb
