Na1 Sr1 Si1 Rh1
1.0
   6.0000000000000000    0.0000000000000000    0.0000000000000000
   0.0000000000000000    6.0000000000000000    0.0000000000000000
   0.0000000000000000    0.0000000000000000    7.1723295618846956
Na Sr Si Rh
1 1 1 1
direct
   0.0000000000000000    0.0000000000000000    0.5639012773398114 Na
   0.0000000000000000    0.0000000000000000   -0.0600278934152628 Sr
   0.0000000000000000    0.0000000000000000    0.2185302180566846 Si
   0.0000000000000000    0.0000000000000000    0.2766753999034287 Rh
