Ba2 Al1 Au1
1.0
   6.0000000000000000    0.0000000000000000    0.0000000000000000
   0.0000000000000000    7.8634914176685218   -0.0000000028252462
   0.0000000000000000   -0.0000000025451910    6.4726596993309400
Ba Al Au
2 1 1
direct
   0.0000000000000000    0.5000000000097005    0.1573757981590557 Ba
   0.0000000000000000    0.5000000003527231    0.3277440737698711 Ba
   0.0000000000000000   -0.0000000000025789    0.6750079682380353 Al
   0.0000000000000000    0.0000000000114489    0.3367011589465526 Au
