Cs1 Y1 Cu1 S1 O1
1.0
   5.9385419958125922    0.0621435698103391   -0.2586635751209601
   0.0623025045676042    5.9703724108578289   -0.1124513085180182
  -0.2589936616747452   -0.1136150205070761    7.4292509762306196
Cs Y Cu S O
1 1 1 1 1
direct
   0.4240594666474904    0.7045025127630299    0.7443959687129073 Cs
   0.2923437575241029    0.6467393025805961    0.1400126277354210 Y
   0.3212468174398948    0.6637239725897073    0.1568462765128254 Cu
  -0.0210336356754909    0.4960295599192993    1.0083884712415250 S
   0.3167155903918242    0.6556726509336580    0.4080956670630148 O
