Rb1 Na1 Cu1 As1
1.0
   6.0000000000000000    0.0000000000000000    0.0000000000000000
   0.0000000000000000    4.9623522018027000    0.0000000137746930
   0.0000000000000000    0.0000000192856373    6.6686343906798520
Rb Na Cu As
1 1 1 1
direct
   0.0000000000000000   -0.0000000000246411   -0.0207504002079404 Rb
   0.0000000000000000    0.4999999864741520    0.4841833982263744 Na
   0.0000000000000000    0.5000000088098029    0.5179319635291232 Cu
   0.0000000000000000    0.0000000051799141    0.4800290521338508 As
