Cs1 Rb1 Li2 Bi1 Sb1
1.0
   4.9433005805737391   -0.0000000067614324    0.0000003059435706
  -0.0000000101408811    6.6232655843057930    0.2182442905554049
   0.0000002221991176    0.1898232676178236    7.2634793690251156
Cs Rb Li Bi Sb
1 1 2 1 1
direct
   0.5000000037299039    0.4480147347081497    0.3975103055540822 Cs
  -0.0000000076134282   -0.0940907446655403    0.6330023284054003 Rb
  -0.0000000140373096    0.4058230725330788    0.9966666273036898 Li
   0.4999999121945005    0.2183217747530207    0.8400252790869807 Li
   0.5000001086977265   -0.0391162231913792    0.1449903954608321 Bi
   0.4999999960349804    0.6171873732024287    0.9053640529367795 Sb
