Ba2 Te1 S1
1.0
   5.6933155699334392   -0.0000000088917446    0.0000000347244229
  -0.0000000092685629    5.7303118950391303   -0.0000000293215687
   0.0000000335308949   -0.0000000337442106    8.0830889328499929
Ba Te S
2 1 1
direct
  -0.0000000064979304   -0.0000000020658430    0.4140810965960182 Ba
   0.5000000128759160    0.4999999997272790    0.4143641644525932 Ba
   0.0000000116230699    0.5000000000893364    0.6618056977519796 Te
  -0.0000000189308187    0.4999999997668109    0.2420370410242645 S
