Cs2 Mo1 F3
1.0
   5.5588603891219979   -0.0757597684535396   -0.4899458163195171
  -0.1379337333270790    6.0793460845959011    1.2761040866198530
  -0.5772686163628991    1.3915842642010077    7.2610330426191076
Cs Mo F
2 1 3
direct
   0.3251176794825330    0.5268809172503254    0.6929625627730940 Cs
  -0.1674573529280161    0.1602815774100150    0.3580444546755422 Cs
   0.2151664694914050   -0.1840576345607725    0.0592612820609952 Mo
   0.3044677559053886   -0.0714993703276216    0.3139247979647508 F
   0.2491000237760214    0.4991141497023545    0.3080730530832987 F
   0.1640554183338064    0.0378903703563294    0.7580848605423837 F
