Mg1 Si2 Rh1
1.0
   6.0000000000000000    0.0000000000000000    0.0000000000000000
   0.0000000000000000    3.9869732619015901    0.0000000379338044
   0.0000000000000000    0.0000000228574187    7.6121039664250958
Mg Si Rh
1 2 1
direct
   0.0000000000000000    0.0000000042162990    0.6211754976216324 Mg
   0.0000000000000000    0.4999999969564439    0.3688016456498846 Si
   0.0000000000000000    0.0000000003404283    0.9662061844796057 Si
   0.0000000000000000    0.0000000000413842    0.2442456834132915 Rh
