Cs1 Rb1 Li3 Sb1
1.0
   5.2274025674149867    0.0000018521324861    0.0000012396003686
   0.0000009353452771    8.5306841286941992    0.3912748486217191
   0.0000009951744573    0.3798367506550666    6.1088735096798379
Cs Rb Li Sb
1 1 3 1
direct
  -0.0000001773774707    0.0003739149816824    0.5609999951893503 Cs
   0.5000001483277539    0.6559749539457416    0.6483359914007011 Rb
   0.0000001255003582    0.0331178051100573    0.0581883846899740 Li
   0.4999996569179257    0.2039760165459232    0.8092723754342086 Li
   0.4999996858575740    0.2369929314093564    0.2555684625643012 Li
   0.5000005656711031   -0.0537206391915009    0.0970177910185829 Sb
