K1 Te1 Pd1 Se1
1.0
   6.0000000000000000    0.0000000000000000    0.0000000000000000
   0.0000000000000000    5.1086097292649963    0.3653163289685012
   0.0000000000000000    0.4249481112912210    7.1183968476656982
K Te Pd Se
1 1 1 1
direct
   0.0000000000000000    0.0879808898245200    0.4678858439791438 K
   0.0000000000000000    0.4888976389662864    0.8626525194199927 Te
   0.0000000000000000   -0.0107059315243128    0.9519638204152970 Pd
   0.0000000000000000    0.6329103946129360    0.2060528193721859 Se
