Sr1 Si2 Pt1
1.0
   6.0000000000000000    0.0000000000000000    0.0000000000000000
   0.0000000000000000    4.1698145227562282    0.0000000227067040
   0.0000000000000000   -0.0000000375082924    8.4165722227975923
Sr Si Pt
1 2 1
direct
   0.0000000000000000    0.0000000044734054   -0.0073093624262465 Sr
   0.0000000000000000    0.4999999898294343    0.2750148932496031 Si
   0.0000000000000000    0.0000000121218459    0.3889174914562749 Si
   0.0000000000000000   -0.0000000066389981    0.6459509710784019 Pt
