Cs2 Li3 Sb1
1.0
   5.9892177988444235    0.0000000002780020    0.0000000002204118
   0.0000000002894948    6.0646240812174987    0.1002743280950875
   0.0000000002326394    0.1007021901470106    6.0881326263642528
Cs Li Sb
2 3 1
direct
  -0.0000000000122601   -0.0133578636774908    0.7413791624563983 Cs
   0.4999999999817173    0.5122582380015854    0.4184978548026805 Cs
  -0.0000000000040101    0.2207622779398425    0.8900051810216912 Li
   0.5000000000027330    0.2846155692257631    0.0865224998672520 Li
   0.0000000000070752    0.3353255569515537    0.1420096719467974 Li
   0.0000000000100176   -0.0381547738525147    0.7008176153585719 Sb
