Rb1 Li1 Sc1 S1
1.0
   6.0000000000000000    0.0000000000000000    0.0000000000000000
   0.0000000000000000    5.9567052422127293   -0.0642353819412819
   0.0000000000000000   -0.0643542374186319    5.9790671609672543
Rb Li Sc S
1 1 1 1
direct
   0.0000000000000000    0.5083273675927087    0.0851356871121627 Rb
   0.0000000000000000    0.2866095069829101    0.5041912430015912 Li
   0.0000000000000000    0.0052401750950809    0.2807345716411874 Sc
   0.0000000000000000    0.0078979515677173    0.2861424963778820 S
