Na1 Sr1 As1 O1
1.0
   4.4352660670763138    0.3305760475794198    0.4346391485642481
   0.3227661715861724    4.9731268232041890   -1.1183748630027230
   0.2923460724724538   -1.1233411454345827    4.5402105697450050
Na Sr As O
1 1 1 1
direct
  -0.1794441534032055    0.5224885174954749    0.3791482363734908 Na
   0.3477394856898322    0.1329152571769684    0.6149690443727464 Sr
  -0.0110189677944728   -0.1399948282710362    0.0088378986970274 As
   0.2868906622351178    0.6304520428159236    0.6047938124139214 O
