Rb1 Li2 Bi2 Sb1
1.0
   4.3998195287153390    0.0000001501624737    0.0000002587174277
   0.0000000937382045    5.1246367500076619    0.6422998379001210
   0.0000001875193554    0.8477659595192071    6.7272102702892447
Rb Li Bi Sb
1 2 2 1
direct
  -0.0000000321303676    0.6146044412575742    0.0829488201581340 Rb
  -0.0000000049936228    0.3900142617808769    0.6387597564699772 Li
   0.4999999786252688    0.1441715298728478    0.9553464960542606 Li
   0.0000000808522277    0.0173562540096116    0.3797365600110526 Bi
  -0.0000000336485895    0.6144117921566894    0.0826570498477367 Bi
   0.5000000148824982   -0.2896862844968494    0.6990113008696399 Sb
