Na3 Sb1
1.0
   6.0000000000000000    0.0000000000000000    0.0000000000000000
   0.0000000000000000    6.6887399392668279   -0.0668549916151611
   0.0000000000000000    0.0269523041099643    5.6100720535180377
Na Sb
3 1
direct
   0.0000000000000000   -0.0615517995994786    0.7605746463346152 Na
   0.0000000000000000    0.6596945114451739    0.2664052999651328 Na
   0.0000000000000000    0.2136426878207334    0.2582708162352864 Na
   0.0000000000000000    0.4382146082678386    0.7621412427023383 Sb
