Ca1 Cd1 Se1 O1
1.0
   6.0000000000000000    0.0000000000000000    0.0000000000000000
   0.0000000000000000    5.3559734161521728    0.0000000331851780
   0.0000000000000000    0.0000000315126010    4.9138979852769822
Ca Cd Se O
1 1 1 1
direct
   0.0000000000000000    0.0000000211347579    0.6016397989667861 Ca
   0.0000000000000000    0.4999999948902862    0.1687799212683679 Cd
   0.0000000000000000    0.5000000088962017    0.6709351428257316 Se
   0.0000000000000000   -0.0000000333106423    0.1539861376499196 O
