Ti1 Be1 Zn1 Pd1
1.0
   2.8511658688132213    0.0025162314737526   -0.0090007431822859
   0.0034994990356658    2.8576574396596399   -0.0603024970744269
   0.0026070053601885    0.0383463487182335    6.6505235361789348
Ti Be Zn Pd
1 1 1 1
direct
   0.4360979691144385    0.3697561804869803    0.2523085672150905 Ti
   0.4392350009362531    0.3707585942100390    0.7385799102299505 Be
  -0.0626903310673831   -0.1107332003034316   -0.0386824408107585 Zn
  -0.0626426499197532   -0.1297815804036080    0.5477939459187026 Pd
