Ba2 Al2
1.0
   4.9113879324234109    0.0000005590086435    0.0000023386162780
   0.0000005736995665    4.7187220492004975   -0.0000002968773427
   0.0000013940770937   -0.0000004022890504    7.7872523236852675
Ba Al
2 2
direct
  -0.0000001653945089    0.5000000234936418    0.0594638260471914 Ba
   0.5000000548922515    0.4999999802936548    0.5596916276773010 Ba
  -0.0000002238314026   -0.0000000764839131    0.7240834154523464 Al
   0.0000003347705564    0.0000000691303366    0.3954241485649137 Al
