Cs1 Na1 Bi1 F2
1.0
   3.2132522451987269   -0.5518586897541157   -0.9328950980346585
  -0.3551003746298065    7.3426853581766593   -1.6845024520931813
  -0.6085544567925452   -1.3134544748563899    6.7485103394626789
Cs Na Bi F
1 1 1 2
direct
  -0.1363804298739304    0.5051748353740810    0.2602747753933182 Cs
   0.3669257795529248    0.1570444447388047    0.6415370724221714 Na
  -0.0836744018526007   -0.1240768075959532   -0.0767475134327135 Bi
   0.0605438301956662    0.3181635842768888   -0.1355325978121713 F
   0.0404792408333147   -0.1067230502832961    0.3105572625768248 F
