Na1 Sr1 Bi1 As1
1.0
   3.6089233345639413    2.5293412898550121    0.0000000335053859
   1.5548548085651706    8.5900529868074553   -0.0000004154746950
  -0.0000001037737503   -0.0000006931592592    4.5497665430333223
Na Sr Bi As
1 1 1 1
direct
   0.1357789080736241    0.1765353926688117    0.4999999899440036 Na
  -0.0033001968254989    0.5855594706196720    0.0000000372743250 Sr
  -0.0969243563962622    0.0114244755862537   -0.0000002036109632 Bi
   0.2977786489380830    0.7148476762511377    0.5000001757823062 As
