Cs1 K1 Mg1 Bi1 As1
1.0
   5.2053016181838334    0.0000118729079319   -0.0000185764482073
   0.0000127896536849    4.5707150066354334    0.2248391415124865
  -0.0000120641657440    0.1534028252613024    8.1123599656300271
Cs K Mg Bi As
1 1 1 1 1
direct
   0.4999999384854986    0.4184698584187749    0.6661592879932653 Cs
  -0.0000004951830301   -0.0639429954053107    0.3474733103894388 K
  -0.0000010927449367    0.3910074305701698    0.9965591591585411 Mg
   0.4999972994982985    0.5201680731350549    0.1429961804550079 Bi
   0.0000043495741695   -0.0992783931477925    0.8495150841230993 As
