Sr1 Si2 Ir1
1.0
   6.0000000000000000    0.0000000000000000    0.0000000000000000
   0.0000000000000000    4.2218810990480424   -0.0000031707367496
   0.0000000000000000    0.0000049282833004    6.8706414997884924
Sr Si Ir
1 2 1
direct
   0.0000000000000000    0.5000004713512038   -0.1976993021028837 Sr
   0.0000000000000000    0.4999997681087400    0.3197175263516123 Si
   0.0000000000000000   -0.0000001335274540    0.1409396751346657 Si
   0.0000000000000000   -0.0000001111626428    0.4854941446604246 Ir
