Sr2 Bi1 P1
1.0
   5.0409218295307010    0.1320536973268785    0.1367083524117139
   0.0515705554026754    4.2937189765461472   -0.9104947642870128
   0.2478120920427819   -0.8173204090405530    6.3254446843801722
Sr Bi P
2 1 1
direct
   0.4431031050714578    0.6199195648217755    0.6991270470921098 Sr
  -0.0961317542475743    0.3573918963711774    0.1587647833367198 Sr
  -0.0306628315149322    0.0745778869556689    0.5890785776820163 Bi
   0.3503574650905748    0.8514136589147323    0.2379486020640484 P
