Cs1 Na1 Ca1 F2
1.0
   3.7020579249133139    0.0905890588860415    0.9391756012907958
  -0.0187915133901747    7.0973547060377129    1.6144618727091429
   0.7038350739363526    1.3688553356596533    6.6661591637259203
Cs Na Ca F
1 1 1 2
direct
  -0.1953705724940210    0.5362300822518797    0.2570487228972946 Cs
   0.1407466591814954   -0.0593727113759007    0.5193214465143394 Na
   0.1315936762133178    0.1583598430149566   -0.0876318536580768 Ca
   0.1594467682727283    0.2306352897867373    0.5682210515111504 F
  -0.0300655376405514   -0.0731625100031989    0.2431236355318968 F
