Ba3 Te2 S1
1.0
   6.1191641342034062   -0.1196329430768808    1.8825886904363123
  -0.3640399856350805    4.0421794952148371   -1.3408730158258511
   1.1241192396819124   -0.5255784299504701    9.8725697946022759
Ba Te S
3 2 1
direct
   0.3721541717416388    0.1475438843005628    0.2701945379127877 Ba
  -0.2679964249379198    0.4598504494336996    0.5758553553274764 Ba
   0.0671115505046548    0.6544136242968409    0.8706170665837737 Ba
   0.5028368373417451    0.2770329774067518    0.9144309676808927 Te
  -0.1608774389049933    0.7305018424933164    0.2608396139433060 Te
   0.1568362920137450   -0.0240478106787088   -0.4127635010476208 S
