Na2 Bi1 As1
1.0
   4.9727140269912828    1.2058445477186661   -0.0000000329897400
   0.8683399994477328    6.3490199132877194    0.0000000535058378
  -0.0000000251622115    0.0000000667954429    4.4175531074772438
Na Bi As
2 1 1
direct
  -0.2685825583131132   -0.0542646189641588    0.4999999855121088 Na
   0.0011426450367670    0.3874619530742219    0.4999999962448243 Na
   0.2367777749746633   -0.0703622155495741    0.0000000092801726 Bi
   0.3639951280667444    0.6558278857457950    0.5000000098061033 As
