Mg1 Zr1 Cd1 Pd1
1.0
   3.1685992255405782    0.0387867213059600   -0.0151516779708461
   0.0387867747135385    3.1685992409666413   -0.0151516265691553
  -0.0145852852411780   -0.0145855849238936    7.8652721537850034
Mg Zr Cd Pd
1 1 1 1
direct
   0.3544747013462880    0.3544747450142590    0.2860412786126986 Mg
   0.3827248149510649    0.3827244899052829    0.7196688238901621 Zr
  -0.1150846986323105   -0.1150843461164989    0.0067174507616823 Cd
  -0.1221148192725368   -0.1221148757077110    0.4875724398235460 Pd
