Cs1 Rb1 Mg1 Bi2
1.0
   4.7999685649452193    0.0000000022315041   -0.0000000669128604
   0.0000000020054088    5.0518884302397087    0.0000000143238510
  -0.0000000559113630    0.0000000140036985    9.7251545108196211
Cs Rb Mg Bi
1 1 1 2
direct
   0.4999999649735302    0.4999999987097110    0.6360460335624381 Cs
  -0.0000000160265592    0.0000000007440768    0.2862305083661650 Rb
  -0.0000000310964802    0.4999999977006783   -0.0253771756026155 Mg
   0.5000000566187224    0.0000000021455712    0.9439714708544665 Bi
   0.5000000252254887    0.4999999999960359    0.1616131671956379 Bi
