Rb1 Au2 Se1
1.0
   4.9591037714395192   -0.2552038277121570   -0.3124584159157750
  -0.2428416706336418    6.0610815961041080   -0.4107920762948526
  -0.3053336624610404   -0.4850586546891522    4.6513557836884720
Rb Au Se
1 2 1
direct
   0.4233152318213284    0.0876942909444666    0.6541358622443078 Rb
  -0.0954113648352047   -0.2043027848227565    0.0836840875196605 Au
  -0.0668419123616850    0.5462803307378388    0.5401676472755547 Au
  -0.0030239472678031    0.3942621691032525    0.0214424059086897 Se
