K1 Li1 Mo1 F2
1.0
   5.9184164069621410    0.0367019904362899   -0.0202129095240548
   0.0368508979351395    6.0444176748330491   -0.0562682007058795
  -0.0194340792489212   -0.0533703414030930    6.6217625074036679
K Li Mo F
1 1 1 2
direct
   0.0117034616335423    0.4947776779754001    0.2536931735364453 K
   0.0040646318609470    0.0036708616425143    0.5485326631269259 Li
   0.0028452986125676   -0.0022863963058125   -0.0556356550648622 Mo
   0.2188211857417882    0.2643157842459510   -0.0060994037395503 F
  -0.0094925768376898   -0.0132079275215072    0.2656102270762702 F
