Cs1 Na1 Ag1 As1
1.0
   6.9669885890360597   -0.2592549350011182    0.0085658157823394
  -0.2481428812286263    4.9458813244679973    0.0049338325363980
   0.0163090958609201    0.0150131061914779    5.6944697742393151
Cs Na Ag As
1 1 1 1
direct
  -0.1269674006452976    0.6888174892767223    0.9253735294480749 Cs
   0.4031274291184373    0.7017314365226347    0.3947385597984696 Na
   0.3909531148782097    0.1825629701240751   -0.0347319034435433 Ag
   0.3624188577246294    0.6768881028672449    0.8935348156672404 As
