Ba1 Zn1 Mo1 O2
1.0
   4.5541190963757590   -0.0243834608575420   -0.0484329116268479
  -0.0655272467043992    4.0579894840483242    0.0648055206323014
   0.0082365813783074    0.1145207222220623    6.9757380479035174
Ba Zn Mo O
1 1 1 2
direct
  -0.1089815940603211    0.4276656777789343    0.3538140097594047 Ba
  -0.0908973319536687    0.0135485982347757   -0.1016040628522550 Zn
   0.3964278172305529    0.5811077216772017    0.8062475408767696 Mo
   0.3919445199399406    0.5005452462574754    0.5435739738674571 O
  -0.0223544113712953   -0.0616372552274473    0.1599685277438963 O
