Rb2 Li4 Sb1
1.0
   8.1280611266388263    0.1997459688135299   -0.1107824025895599
   0.3602484635761557    6.0023420327493664    0.6250729137597149
  -0.0631725726356851    0.5137993070421605    4.8422530174568221
Rb Li Sb
2 4 1
direct
   0.1989074734269594    0.4860487496054878    0.3483563509707857 Rb
   0.4618802641847488   -0.0688297081602401    0.7847097125968662 Rb
  -0.1518731118341868    0.4441965592644577    0.7881220974577079 Li
   0.0578856179558486    0.0502745517258779    0.1464963140040412 Li
   0.7433076389719757    0.2226084961876637    0.3362465263495644 Li
   0.8049668461575439    0.7599690523074393    0.2161658763880642 Li
  -0.0557547206837494   -0.0856596772888902    0.6911101185666694 Sb
