Rb1 Sr1 Si1 Rh1
1.0
   6.0000000000000000    0.0000000000000000    0.0000000000000000
   0.0000000000000000    6.2146813890527843   -0.8610997543195928
   0.0000000000000000   -1.0950175619000784    6.1676651143728964
Rb Sr Si Rh
1 1 1 1
direct
   0.0000000000000000    0.3653750594302189    0.8334306504725660 Rb
   0.0000000000000000   -0.2455081141991803    0.4446016533317697 Sr
   0.0000000000000000   -0.0758378934049911    1.0124772363803587 Si
   0.0000000000000000    0.2083309483133343    0.3001704541565846 Rh
