Mg1 B1 Pt2
1.0
   4.8167571196023040    0.5434504717455033   -0.9128539592620922
   0.7685941008358664    2.9305487975561126    0.5971559534069987
  -1.0441020252360154    0.7221408826142779    4.6728067509962701
Mg B Pt
1 1 2
direct
  -0.0137313602583935    0.2116860616095213    0.6369723911976936 Mg
   0.0335809437357616   -0.0609387779137893    0.1965066885026213 B
  -0.3177683165930117    0.7170656387786916   -0.0548735597378297 Pt
   0.3614277561210618    0.2729190828570827    0.2232504833609702 Pt
