Cs1 Na1 Ag1 Bi2 Sb1
1.0
   5.6359621203269086    0.0000000015200102   -0.0000000043897415
   0.0000000015672477    6.0948151521425178   -0.1563403884031309
  -0.0000000041567143   -0.1561830640504600    7.4051290051505987
Cs Na Ag Bi Sb
1 1 1 2 1
direct
  -0.0000000000664185   -0.1082448184635093    0.9278806241423572 Cs
   0.0000000000995454    0.3556252080219093    0.6829159195659744 Na
  -0.0000000000578952    0.4057832985289981    0.2607558310570467 Ag
  -0.0000000001506704   -0.0675550386528184    0.4167940615888152 Bi
   0.0000000010669279    0.4519338732939406    0.2654636428255080 Bi
   0.4999999990198890    0.0106404787194970    0.5857499221968696 Sb
