K1 Ba2 Te3 S1
1.0
   5.3592401877539384   -0.0000003805713653   -0.0000006194263603
  -0.0000002998938398    6.6402230305789693    0.6950750822264976
  -0.0000004800045000    0.7353242169038747    7.3167282547271268
K Ba Te S
1 2 3 1
direct
   0.0000000738933492    0.5723321145516861    0.0862831446980020 K
  -0.0000000601827194   -0.1302036904274795    0.5824701112347950 Ba
   0.5000000149206096    0.2822851973064279    0.8319969192315386 Ba
  -0.0000001220755109    0.3897132984939248    0.5080422093765711 Te
   0.0000000741591386    0.5729793875394620    0.0895240027990545 Te
   0.0000000261475806    0.0407363828450521    0.0922371688458910 Te
   0.4999999919713126   -0.2324007026730694    0.8006584420988757 S
