Ba1 Na1 Cd2 Bi1
1.0
   5.3859227796299471   -0.0000000010174262    0.0000000013481597
  -0.0000000013964441   10.5993791854891661   -0.0884505730395083
   0.0000000014039803   -0.0578150458016677    6.6449838639594025
Ba Na Cd Bi
1 1 2 1
direct
  -0.0000000000784742    0.5320697501539308    0.1471685112948846 Ba
  -0.0000000000635069    0.0449474501731171    0.5375843350086426 Na
  -0.0000000001070281    0.5338463080872664   -0.0067550528475804 Cd
   0.0000000005163227    0.0311503112913779    0.0588653877139995 Cd
   0.4999999999720743    0.0384891784864448    0.2472438254078842 Bi
