Ca1 Cd1 Se1 O1
1.0
   3.6649457410154627   -1.0164508909359915   -0.7177842159808716
  -1.0164503440956179    3.6649464962956650    0.7177842342405085
  -0.5738838932739382    0.5738846272310877    7.0584039733528314
Ca Cd Se O
1 1 1 1
direct
   0.2398949725264732    0.7601051705318365    0.1303614917124608 Ca
   0.0384528174402385   -0.0384530345640973    0.5580310999800241 Cd
   0.4417357957041620    0.5582643737892272    0.7869537736902035 Se
  -0.0534175864913957    0.0534174628190698    0.2302376450425032 O
