Cs1 Rb1 Sc1 S2 O3
1.0
   6.0316098033627128   -0.0136767622098144    0.0035204914129832
  -0.0136767576399774    6.0316168083137907   -0.0035180485579867
   0.0034910203345690   -0.0034885989831869    6.0913812082759957
Cs Rb Sc S O
1 1 1 2 3
direct
   0.6677727315935086    0.3322279948243740    0.0022410927852132 Cs
   0.3375199872545038    0.6624842515802722    0.5266461318947723 Rb
   0.0237750989722369   -0.0237564586652993    0.4595555088988077 Sc
  -0.0119165993889416    0.0119071285070487    0.3495197636264502 S
   0.3347645563754920    0.6652364446334761    0.9060521679121136 S
   0.0008364754798582   -0.0008360938802074    0.0218725712753817 O
  -0.0135332035330570    0.0135224458826982    0.3438912500703534 O
   0.3274469561634311    0.6725482895663657    0.5393445075338911 O
