Cs1 Rb1 Te1 O1
1.0
   6.0000000000000000    0.0000000000000000    0.0000000000000000
   0.0000000000000000    5.2246502200667688   -0.0228152052485645
   0.0000000000000000   -0.0215259769709627    5.6238015853047880
Cs Rb Te O
1 1 1 1
direct
   0.0000000000000000   -0.0002288821204643   -0.1017662044286871 Cs
   0.0000000000000000    0.5008337793056996    0.3482130928859081 Rb
   0.0000000000000000    0.5013686012280048    0.3486521152487170 Te
   0.0000000000000000   -0.0019734949090195    0.4125439940678275 O
