Rb1 Na1 Ca1 F2
1.0
   3.2618538522779712    0.4202293924396675    1.3559388981704732
   0.1794571487174946    6.7912647119375587    2.0020950018013233
   0.9930702542436521    1.7188133170181166    6.8757521818500553
Rb Na Ca F
1 1 1 2
direct
  -0.2616846909845078    0.5543761399043352    0.2428546390032806 Rb
   0.1510052656418700   -0.0821699458647955    0.5209925621597684 Na
   0.2564224324889576    0.1808110548707129   -0.1114593400597660 Ca
   0.0187384179736853    0.2517630694428655    0.6131119133020275 F
   0.0424605831869137   -0.1123483696404650    0.2345882130974537 F
