Ba1 Li1 Ru1 O1
1.0
   6.0505042632331589    0.0000000000000000   -0.0004929370326408
   0.0000000000000000    6.0000000000000000    0.0000000000000000
  -0.0004068893138338    0.0000000000000000    6.0287534308678117
Ba Li Ru O
1 1 1 1
direct
   0.2419823077193747    0.0000000000000000    0.2869968264985249 Ba
  -0.0094569863936920    0.0000000000000000   -0.0089221300274920 Li
  -0.0257892832713558    0.0000000000000000    0.5210433470829299 Ru
   0.2000949603722725    0.0000000000000000    0.2959229567031769 O
