Ba3 Te2 S1
1.0
   5.9822622011979574    0.0000354994042313    0.0000315566067161
   0.0000353972998563    6.0070591103695499   -0.0000077411841822
   0.0000317733976661   -0.0000078149821396    5.9219401623050612
Ba Te S
3 2 1
direct
   0.4999941770140416    0.5000013236908371    0.6428073549147476 Ba
  -0.0033403421207541    0.0007206200288786    0.3044121077916395 Ba
   0.0014293467829043   -0.0003046838970972    0.3456820694317086 Ba
  -0.0000018918473026    0.5000035244442208    0.2542171726813583 Te
  -0.0002125294082911    0.0000433323714026    0.2788867965045266 Te
   0.0021312396192312   -0.0004641166574051    0.2741105052314943 S
