Cs1 K1 Mg1 Bi1 As1
1.0
   5.1482787264500605   -0.0000000003259222   -0.0000006786514242
  -0.0000000002690787    4.7476958876615925    0.0000000245401313
  -0.0000004229852300    0.0000000215370453    8.1013459741822818
Cs K Mg Bi As
1 1 1 1 1
direct
   0.4999999999618679    0.5000000001293610    0.6677162513590746 Cs
  -0.0000000011979830   -0.0000000002156148    0.3331649989529546 K
   0.0000001779484894    0.4999999954958768    0.9930147511775241 Mg
   0.4999997945042450    0.5000000043625786    0.1552235849795505 Bi
   0.0000000289358859    0.0000000000291178    0.8534294183439219 As
