Rb2 Sc1 S2 O3
1.0
   5.8467291530917143    0.0860885656314759   -0.0030967979323695
   0.0862483532607816    5.8226240183308633    0.0112309965684529
  -0.0030869723834293    0.0109674491433097    5.8858245265931579
Rb Sc S O
2 1 2 3
direct
   0.0035616940343821   -0.0020185672200285    0.1280939753321917 Rb
   0.3260104202676860    0.6506831709306969    0.5164075254398205 Rb
   0.6827431200955343    0.2870520623940402    0.2413132605044366 Sc
   0.6866002357351422    0.2817989024786611    0.2977091867398721 S
   0.3427598461274635    0.6556619839678027    0.9260215007775829 S
  -0.0574925432663538    0.0624312179239116    0.1787146706657432 O
   0.5204328859669078    0.0814654225470748    0.3981469366661741 O
   0.3287173390693041    0.6495928062573744    0.5493489358005692 O
