Rb1 Y1 Sc1 S2
1.0
   5.9306801423593924    0.0590513560658149    0.0051105183142395
   0.0590513658365270    5.9306946991887433   -0.0050913693427726
   0.0054974275400796   -0.0054776964345775    6.7954003118830233
Rb Y Sc S
1 1 1 2
direct
   0.3420131817509493    0.6580357836264920    0.8337264786212597 Rb
   0.3246533478343831    0.6753416404792908    0.5126492648335577 Y
   0.3205421785004656    0.6794565264472558    0.1574590080004857 Sc
   0.0223466940518505   -0.0223466719151073    0.3231742980364065 S
   0.3237765990493666    0.6761807179372268    0.8704899492869040 S
