Ba2 Te1 S1
1.0
   6.0000000000000000    0.0000000000000000    0.0000000000000000
   0.0000000000000000    5.6651895391742784    0.0038607839576553
   0.0000000000000000    0.0036445517534423    6.0663643252571973
Ba Te S
2 1 1
direct
   0.0000000000000000    0.0001450806294766    0.6633610599072258 Ba
   0.0000000000000000    0.5020079652827175    0.2070861405115514 Ba
   0.0000000000000000    0.5021381915958693    0.2088135154679894 Te
   0.0000000000000000   -0.0042912373513556    0.1564312836819888 S
