Sr1 Si1 P2
1.0
   4.6566524105289293    0.0305471131030055    0.5700002677354676
  -0.0049386632275402    3.9009761053292076    0.5672386874495290
   0.5877775384076127    0.3588154211535821    5.6876763321918258
Sr Si P
1 1 2
direct
  -0.1836031500275457    0.3181993146581441    0.0027413116868696 Sr
   0.2530853116378135    0.3774407971583335    0.4706751792371107 Si
   0.2785066317443191    0.7764998891226060    0.1308970548637353 P
  -0.0146557909169490   -0.1124430059311079    0.4963554505957419 P
