Ba1 Si2 O1
1.0
   6.0000000000000000    0.0000000000000000    0.0000000000000000
   0.0000000000000000    6.8344334439018466   -0.9278216457424399
   0.0000000000000000   -0.7270457709759197    4.1678040061627755
Ba Si O
1 2 1
direct
   0.0000000000000000   -0.2730867183328594    0.4069826418262175 Ba
   0.0000000000000000    0.3193292717473957    0.6763951438449735 Si
   0.0000000000000000    0.1787509278125110    1.1066574218392693 Si
   0.0000000000000000   -0.0744935098024574    0.0057878155537672 O
