Rb1 Na1 As1 Au1
1.0
   4.2403718393528811   -1.0784846032258630    1.1554387236087493
  -0.7643839578177298    6.6891165637776808    0.5549851661325257
   1.1947162866232170    0.7454814234348264    5.2391437554613667
Rb Na As Au
1 1 1 1
direct
   0.4591011961449324    0.3109428764841154    0.6855383927840252 Rb
   0.4447757174250087    0.7636390074551713    0.1246147773943845 Na
   0.1524346229421992    0.7661173106051390    0.7081911763086504 As
  -0.1612155293907965   -0.0906991884915831    0.4771006543439757 Au
