Cs1 Na1 Ag1 Bi2 Sb1
1.0
   5.2654981614853762    0.0000000086081656    0.0000000024073650
   0.0000000073976119    6.5299047778306463   -0.3472106934143823
   0.0000000013216487   -0.2805518947917884    8.9763109004661850
Cs Na Ag Bi Sb
1 1 1 2 1
direct
   0.0000000000366835    0.1319587270176164    1.0369660148750477 Cs
   0.0000000001937066    0.3760297289822703    0.4621568732323207 Na
   0.0000000028844412   -0.1593008044020020    0.3436529725655143 Ag
   0.0000000013628673   -0.2086499895176351    0.3480743323144661 Bi
   0.4999999952065644    0.6059287067971348    0.2922115689480063 Bi
   0.0000000000355630    0.0040336358512070    0.6278702444454788 Sb
