Cs1 Mg1 Br2
1.0
   5.8751349357075338    0.0838290317249497    0.1956441485564745
   0.0903595645356851    6.1293897479764130   -0.7322828783605686
   0.1486813321203134   -0.8401334277325954    8.8422489640517945
Cs Mg Br
1 1 2
direct
   0.2956907756245879    0.8501676855877536    0.4458176016433700 Cs
   0.3559347500325939    0.6137039882479546   -0.0860336773133550 Mg
   0.1132361747865808   -0.0836981414548748    0.0940266280504627 Br
   0.2718042969155197    0.3984174678590294    0.6342984335771779 Br
