Cs1 Na1 Bi1 F1
1.0
   3.2254406043900712   -1.0099452026252540   -0.0266846178468160
  -0.7052580938972648    9.1137937214248979   -0.3802760678019291
  -0.1390119164228540   -0.6855455466640956    4.1545416933887420
Cs Na Bi F
1 1 1 1
direct
  -0.1762077885876448    0.4829099529824838    0.3003292539924243 Cs
   0.4766922038962499    0.1225074549293249    0.6642591881048547 Na
  -0.2606303379574027   -0.1263745458368119    0.0666962920148170 Bi
   0.1669389135194445    0.3133960993597342   -0.2802417190021035 F
