K1 Te1 Pd1 Se1
1.0
   6.0000000000000000    0.0000000000000000    0.0000000000000000
   0.0000000000000000    5.1086155386489569    0.3653167953288279
   0.0000000000000000    0.4249497955400986    7.1183852708385640
K Te Pd Se
1 1 1 1
direct
   0.0000000000000000    0.0879812481811602    0.4678866307078997 K
   0.0000000000000000    0.4888971868331805    0.8626535803017116 Te
   0.0000000000000000   -0.0107060353117212    0.9519647221301256 Pd
   0.0000000000000000    0.6329106021365272    0.2060540641110049 Se
