Mg1 Ag1 Bi1 P1
1.0
   4.1786201062409489   -0.0827636036800793    0.1300320356045221
  -0.0850112909840906    4.2586841380826037    0.6320957167363251
   0.2358845100533146    0.6914172052742280    5.4861718303149445
Mg Ag Bi P
1 1 1 1
direct
   0.1799897411970196    0.6493897778347373   -0.0874836121698369 Mg
   0.2505553143130879    0.4514694275945723    0.4488597349178086 Ag
  -0.2422922600881925    0.0107704520536177    0.3367061659621799 Bi
  -0.1498607740174814    0.1610633364882753    0.8215117183124238 P
