K2 Mg1 Bi1 As1
1.0
   5.1406001945508404   -0.0000003036564473   -0.0000050906353576
  -0.0000003222310503    4.6758044741437876    0.0000000567766149
  -0.0000035158898707    0.0000000445334559    7.4646073491380136
K Mg Bi As
2 1 1 1
direct
  -0.0000000715630173    0.0000000004663351    0.3663798083598341 K
   0.5000000653242848    0.4999999669371328    0.6724696101442709 K
   0.0000023008658501    0.5000000044748116    0.9839075801709467 Mg
   0.4999982215021593    0.5000000035897690    0.1677435896212014 Bi
  -0.0000005191500220    0.0000000250772394    0.8201314120258534 As
