K1 Ca2 Mg1 P1
1.0
   5.9999999999999982    0.0000000000000000    0.0000000000000000
   0.0000000000000000    6.2737628513595922   -0.0111937960947527
   0.0000000000000000   -0.0109915284152577    5.9053542526107012
K Ca Mg P
1 2 1 1
direct
   0.0000000000000000    0.3011381886770836    0.2238069204859688 K
   0.0000000000000000    0.5437850737348241    0.2936429780702934 Ca
   0.0000000000000000    0.5212244234246134    0.3542781339289897 Ca
   0.0000000000000000   -0.0553063249536386   -0.0442415532558898 Mg
   0.0000000000000000   -0.0649533616433842    0.5208155207149806 P
