Rb2 Te1 O1
1.0
   6.0000000000000000    0.0000000000000000    0.0000000000000000
   0.0000000000000000    6.2339455497629164    0.0000000019942668
   0.0000000000000000    0.0000000016663209    6.3673902755485461
Rb Te O
2 1 1
direct
   0.0000000000000000   -0.0000000538900650    0.0612982565801516 Rb
   0.0000000000000000    0.4999999744712921    0.0935554535398913 Rb
   0.0000000000000000    0.4999999996239448    0.5905082679252052 Te
   0.0000000000000000    0.0000000787488372    0.0483020133477102 O
