Sr1 Si2 O1
1.0
   6.0000000000000000    0.0000000000000000    0.0000000000000000
   0.0000000000000000    4.0042465799028948    0.0017328304444546
   0.0000000000000000    0.0009626868352009    7.4642364338414176
Sr Si O
1 2 1
direct
   0.0000000000000000   -0.0005705133175191   -0.1674199346850625 Sr
   0.0000000000000000    0.4997034791189047    0.5124696969538086 Si
   0.0000000000000000   -0.0001683278822461    0.3485479621154084 Si
   0.0000000000000000    0.0010353613277505    0.1288432636425565 O
