Cs1 Na1 Sb1 F2
1.0
   3.4424753181822623   -0.5328159531736636    0.3623977003663622
  -0.1441088509986486    6.0427654669205833    1.8525274182671509
   0.3788036617513422    1.1534914643954952    7.2248511250213934
Cs Na Sb F
1 1 1 2
direct
   0.4653165829321303    0.2021758150924593   -0.0663720277739688 Cs
  -0.2393273998029839    0.4877844967026530    0.3530062118453722 Na
   0.0322862383190423   -0.0952021463223422    0.5899318405327829 Sb
   0.1536686707581017    0.3094126576527678    0.5526592243481147 F
  -0.1830840387720875   -0.1362258062119954    0.2222347714137958 F
