K1 H1 Pd1 Rh1
1.0
   5.9617937685169515   -0.1064436040429777   -0.0202208306004883
  -0.1037815139182899    5.9072768789038532    0.0272189584877692
  -0.0203675405147627    0.0281511518716807    5.7926284804050141
K H Pd Rh
1 1 1 1
direct
  -0.0176204727045096    0.5380399102963627    0.2164222988389836 K
  -0.0054476824016019    0.5107862331272719    0.2141254252033134 H
  -0.0027483203465635    0.0031568670474952    0.5163287926361940 Pd
   0.1343174766293469    0.1980169804764020    0.1874274836079808 Rh
