Cs2 Na2 Bi1 P1
1.0
   7.0857160499150496    0.0000000072693686   -0.0000000052557451
   0.0000000089611478    9.6150415865090100   -0.3135747939025434
  -0.0000000057911042   -0.2783890738581279    6.7825666471780242
Cs Na Bi P
2 2 1 1
direct
   0.0000000001100909    0.0142818689503732    0.3632175439651241 Cs
   0.4999999995604961    0.5288281114660464    0.6497476593693690 Cs
  -0.0000000015450793    0.3628629572610855   -0.0285945592351583 Na
   0.5000000007423775    0.2121702446444227    0.2834085265194811 Na
   0.0000000005063221   -0.1129393669526042    0.3658274151527548 Bi
   0.5000000001565068    0.4351971969743329    0.1048204068534477 P
