Ba3 Te1 Se2
1.0
   6.7693214945824369   -0.0098325162426834    0.7896402703906734
  -0.0093596471552517    5.8453621037447920    0.0019531137633469
   0.7546795574731127    0.0041054029057138    6.6882296136222337
Ba Te Se
3 1 2
direct
   0.7826794746693135    0.7498100028293939    0.0558441341915869 Ba
   0.0638730747445911    0.2503257380716314    0.3577834991316522 Ba
   0.3356839846702425    0.7510011610668434    0.6663282630926708 Ba
   0.0636994009343379    0.2495940057669267    0.8585868603526903 Te
   0.8150779592078511    0.7495882231460970    0.5464740663377924 Se
   0.3058901121006712    0.7502808630966837    0.1718781451339542 Se
