Ba2 Si1 Ir1
1.0
   6.0004602449352138    0.0304947129081255    0.0188388626570228
   0.0304223972919715    6.0246028329097561    0.0435401886715825
   0.0189127327382982    0.0438186218491435    5.9537829884542166
Ba Si Ir
2 1 1
direct
   0.1552368580624062    0.3414573078014909    0.5075754858382715 Ba
  -0.0050277915355290   -0.0112944552505013    0.2771070009448801 Ba
  -0.0001429019544747   -0.0011049439123148   -0.0183483080780244 Si
   0.0001778355383833   -0.0002919080541178    0.3232748197096778 Ir
