Ba3 Se2 S1
1.0
   6.0935251095134699   -0.0000000002466913    0.0000000031239717
  -0.0000000002467059    6.0935251092648963    0.0000000030633004
   0.0000000031062326    0.0000000030458167    6.0250540544725641
Ba Se S
3 2 1
direct
   0.0000000000066458   -0.0000000000179218    0.6288538919410976 Ba
   0.4999999999698043    0.4999999999751804    0.3267970117333707 Ba
   0.5000000000339336    0.5000000000349265    0.4928452023205339 Ba
   0.4999999999578711    0.4999999999714028    0.2569681318590145 Se
   0.0000000000224864    0.0000000000125659    0.0378412914765172 Se
   0.0000000000425023    0.0000000000308046    0.4916014711638398 S
