Cs1 Na1 Sb1 F1
1.0
   6.0000000000000000    0.0000000000000000    0.0000000000000000
   0.0000000000000000    6.0416178905248517   -0.0327113350321830
   0.0000000000000000   -0.0858860034107987    7.9782828647558217
Cs Na Sb F
1 1 1 1
direct
   0.0000000000000000   -0.1602237390766575    1.0030259748696471 Cs
   0.0000000000000000    0.3380765447125941    0.4609231751634558 Na
   0.0000000000000000   -0.1582108196164011    0.4871426471884838 Sb
   0.0000000000000000    0.2303580165494186    0.2036331995930904 F
