Ba3 Se2 S1
1.0
   6.3974079176283984   -0.0000000122495646    0.0000000014227319
  -0.0000000109151418    7.4313703639660957   -0.0000023234606289
   0.0000000007859593   -0.0000022252329480    7.7002045873957830
Ba Se S
3 2 1
direct
   0.0000001960089753    0.0000128090713587    0.7341079659721855 Ba
   0.0000000020666503    0.4999990348599447    0.3577067957780397 Ba
  -0.0000000002616161    0.4999987828093607    0.5017083328974592 Ba
   0.5000000015131844    0.5000000064172773    0.1907032170804602 Se
   0.0000003363315373    0.0000246170974731    0.0933491139166359 Se
  -0.0000005356410748   -0.0000352495452534    0.3573375757276689 S
