Ba1 Na1 Mg2 Bi1 Sb1
1.0
   5.0310817683296083   -0.0000001061591734   -0.0000000791124984
  -0.0000001007940726    6.2536521636775699   -0.6226823166333122
  -0.0000000556602229   -0.4614437841280462    8.6495190234207957
Ba Na Mg Bi Sb
1 1 2 1 1
direct
   0.5000000003826068    0.6022551443570132   -0.1232322579108759 Ba
   0.4999999642176869    0.0405321239082130    0.6148348729857487 Na
  -0.0000000232575203    0.2844766318408446    0.1048046073204121 Mg
   0.5000000257257171    0.3347315498141767    0.3212996203329629 Mg
   0.5000000122925250   -0.1972495235433030    0.2754642177849058 Bi
   0.5000000232910116    0.1224390463996414    0.9940049529791196 Sb
