Ba3 Te2 S1
1.0
   5.9834368621180740   -0.0000000005713440    0.0000000004047721
  -0.0000000005814991    6.1751053141374364   -0.0000000047933736
   0.0000000004195930   -0.0000000048580087    6.2402649160295915
Ba Te S
3 2 1
direct
   0.0000000006422072   -0.0000000002137043    0.6302477506526937 Ba
  -0.0000000000000140    0.4999999999991486    0.3177222779296927 Ba
  -0.0000000005995886   -0.0000000000260638    0.7628572581539470 Ba
   0.5000000000658789    0.5000000001450489    0.2502867471987717 Te
  -0.0000000000020531    0.5000000000002364    0.2681355196303233 Te
  -0.0000000001532865    0.0000000000002760    0.2357584446863248 S
