Cs2 Na1 Sr1
1.0
   8.0529911078184693   -0.0000000000752795   -0.0000000388900864
  -0.0000000001555812    6.8287070984782225   -0.0000000342821446
  -0.0000000383553338   -0.0000000388703937    9.1849743567444797
Cs Na Sr
2 1 1
direct
  -0.0000000019098378   -0.0000000000820585    0.4199311348172113 Cs
   0.5000000000185170    0.5000000004634716    0.5197658723614624 Cs
   0.5000000001475061   -0.0000000001553630    0.2046206201895442 Na
   0.5000000003282612    0.4999999998456223    1.0161243655331564 Sr
