K1 Ba2 Sr1 Te1 S1
1.0
   5.9264984429584038   -0.0000000064587598   -0.0000002854621661
  -0.0000000073876437    5.5973043185251612   -0.0007488046492232
  -0.0000001800544601   -0.0003825199504764   10.5161765678726677
K Ba Sr Te S
1 2 1 1 1
direct
   0.0000000232745233    0.5000066142277717    0.3120043324078148 K
  -0.0000000005655947   -0.0000904542088297    0.5952618699299067 Ba
   0.5000000207019250    0.0001201711834764    0.3124838018477346 Ba
  -0.0000000063235434   -0.0000613499716829    1.0275709670816964 Sr
   0.5000000048600154    0.5001758127235943    0.5203182464855045 Te
  -0.0000000395638443   -0.0000047933678694    0.2980127613765876 S
