V1 B1 Pb1 O1
1.0
   5.9995539109651768    0.0013802773960691    0.0099130780593624
   0.0013272420662660    5.8679726174436695   -0.2755582175371592
   0.0086363004346454   -0.2407620252847721    6.9040091238267660
V B Pb O
1 1 1 1
direct
  -0.0012949642462774    0.0083800791693352    0.5411944958575510 V
   0.0063962245104094   -0.0832773471451540    0.2173787214184715 B
  -0.0028842578536666    0.0587986461021876   -0.0704361737347426 Pb
   0.0209009973644109    0.7290246271419916    0.3004009556090330 O
