Rb2 Mg1 Bi1 As1
1.0
   5.2179061585575806    0.0000000238883148    0.0000035464419371
   0.0000000249541300    4.7346476560408401    0.0000000176544984
   0.0000024127248328    0.0000000206289313    7.7737377502479541
Rb Mg Bi As
2 1 1 1
direct
   0.5000000675863675    0.4999999949565377    0.6156875560968661 Rb
   0.0000001174818342   -0.0000000016674649    0.3040318611495872 Rb
  -0.0000000421545523    0.4999999960398224    0.9312262206484808 Mg
   0.5000006998283554    0.5000000161423420    0.1052524107187378 Bi
  -0.0000008437490606   -0.0000000052545942    0.7741889539895085 As
