Rb1 Sc1 In1 O2
1.0
   5.7798073921866884    0.1253857517273018   -0.0271869193052836
   0.1253857697093632    5.7798102380575411    0.0271867374383475
  -0.0179223333927102    0.0179222270044606    6.0694545296170928
Rb Sc In O
1 1 1 2
direct
   0.4856646608830061    0.5143353705111144    0.7998108628675594 Rb
   0.0216751244398465   -0.0216751597389230    0.4684264421093908 Sc
   0.0038197423664320   -0.0038196705687030   -0.0296619325912474 In
   0.2518767017732632    0.7481231669051834    0.1252785842954804 O
   0.2369627699684040    0.7630372932430607    0.3801500474410602 O
