Na2 Ag1 Bi2
1.0
   5.9999999999999982    0.0000000000000000    0.0000000000000000
   0.0000000000000000    6.9209037116303902   -0.4115072318595222
   0.0000000000000000   -0.3889621967573913    6.1790485951589877
Na Ag Bi
2 1 2
direct
   0.0000000000000000    0.2558506796528905    0.6970894689030290 Na
   0.0000000000000000    0.5616064613793516    0.3142824676238932 Na
   0.0000000000000000    0.5960588002898285    0.3263366742346316 Ag
   0.0000000000000000   -0.0221391745835933    0.2232423849663931 Bi
   0.0000000000000000   -0.1965967578527532    0.7544290037528062 Bi
