Sr1 Si2 Pt1
1.0
   6.0000000000000000    0.0000000000000000    0.0000000000000000
   0.0000000000000000    6.3147388489575382   -0.4272435674165297
   0.0000000000000000   -0.4383115476064285    4.8238919196964360
Sr Si Pt
1 2 1
direct
   0.0000000000000000    0.6332464932793429    0.1889437528546617 Sr
   0.0000000000000000    0.3535676149923103    0.6330522213441255 Si
   0.0000000000000000    0.0090052953824096    0.7385721015853448 Si
   0.0000000000000000    0.1012515849636762    0.2324589232019247 Pt
