Rb1 Y1 In2 O3
1.0
   5.9911392712617921    0.0169554829028363   -0.0388642214264534
   0.0171666111732700    6.0716755918419985    0.0110627899741581
  -0.0378316693852626    0.0110394289091636    5.9546981340499929
Rb Y In O
1 1 2 3
direct
   0.3611181920098268    0.7383523470727653    0.8426828389284164 Rb
   0.3216643989953278    0.6704463259122704    0.4600292867477495 Y
   0.3437182764197406    0.2750259450235545    0.0717567406478412 In
  -0.0609964918950725   -0.0042677967416780    0.0522793087776244 In
   0.0333487764643764   -0.0003225860034755    0.3800397880893308 O
   0.3185690642493380    0.6690312072355801    0.4431086607037769 O
   0.0159097838121100   -0.0149314471398051    0.3842883825874612 O
