Sr1 Si2 Pt1
1.0
   6.0000000000000000    0.0000000000000000    0.0000000000000000
   0.0000000000000000    4.1363134649322983   -0.0000000388509375
   0.0000000000000000   -0.0000000219738972    8.4593772642064771
Sr Si Pt
1 2 1
direct
   0.0000000000000000    0.0000000001287893   -0.0183486330668494 Sr
   0.0000000000000000    0.5000000172947928    0.2655688473358957 Si
   0.0000000000000000   -0.0000000196122375    0.3814601176557629 Si
   0.0000000000000000    0.0000000032673024    0.6366556587163057 Pt
