Cs1 Al2 Au1
1.0
   6.0000000000000000    0.0000000000000000    0.0000000000000000
   0.0000000000000000    4.5555164327223645    0.0000014730447030
   0.0000000000000000    0.0000004172800097    9.6246228159245923
Cs Al Au
1 2 1
direct
   0.0000000000000000   -0.0000003623563101    0.9695648062059515 Cs
   0.0000000000000000    0.5000001593760159    0.4104535520572163 Al
   0.0000000000000000   -0.0000001242423030    0.5670602201248879 Al
   0.0000000000000000    0.0000003243229757    0.2964604453185456 Au
