Rb1 Tl1 Zn1 As1
1.0
   4.4324783294861447   -0.6359983239531384    0.2028222055573493
  -0.6359986356017631    4.4324755832742193   -0.2028223819868894
   0.2219501961628890   -0.2219505045949818    7.4421179777721651
Rb Tl Zn As
1 1 1 1
direct
  -0.1373132369478911    0.1373133038247972    0.0367040828939602 Rb
   0.0163749938941737   -0.0163750024048981    0.4881726280780256 Tl
   0.3941332679212551    0.6058665995368290    0.6382745255287696 Zn
   0.3934709729579496    0.6065291002453211    0.3202477675079544 As
