Ba3 Te2 S1
1.0
   4.2913369459568340    0.0000000841856720    0.0000040723423843
   0.0000000709699142    4.4434247967868057    0.0000003417565557
   0.0000009997720289    0.0000006500653592   13.1858967969960830
Ba Te S
3 2 1
direct
   0.5000000910812639    0.5000001678982405    0.4467203907585593 Ba
   0.0000003234464043    0.0000000098082965    0.7469058254605092 Ba
  -0.0000009548546786   -0.0000000654835300    0.0608859444518396 Ba
   0.5000000068881636    0.4999999202076513   -0.1119115265890494 Te
   0.0000006172505646    0.4999998520724379    0.2388572297433668 Te
  -0.0000000881424293    0.0000001169476230    0.5271271258657497 S
