Rb2 Sc1 S1
1.0
   7.9110259086348655    0.8931094159763104   -0.8698591411388453
   0.7753809597461346    9.0267694028962975    0.1306043053648026
  -0.3980499515998178    0.4307795838497956    4.9296540993461901
Rb Sc S
2 1 1
direct
  -0.1442195155386215    0.0550707404454273    0.0490275382165164 Rb
   0.3539744817613517    0.6769445906018463    0.7705205866280830 Rb
   0.2670214403809256    0.1829814372660331    0.6493559030805645 Sc
   0.1216645922002449    0.0016702262130749    0.6333519563400472 S
