Na1 Sr1 Sb1 O2
1.0
   3.9107151584319513   -0.2871341645870482    0.0605887717068856
  -0.1449164265242261    5.5859043586540427    1.1389015240771299
   0.1841872932143266    1.0509401338219906    4.9765641504048936
Na Sr Sb O
1 1 1 2
direct
  -0.3143248550356626    0.6195730068459684    0.2972587713645758 Na
   0.2988171045407596   -0.0332983875458987    0.6084103748064341 Sr
  -0.0523451632583822    0.2951862761710060   -0.0528789373439972 Sb
   0.1574964954682714    0.3908623956678804    0.5498178335411615 O
   0.1389084227042013   -0.0437622908283670    0.1293919511694129 O
