Cs1 Rb1 Na1 Li3
1.0
   6.5199129800896598    0.0000000561998773   -0.0000000338552371
   0.0000000597612433    5.7038980729471493    0.0000000348969584
  -0.0000000183901683    0.0000000424292180    7.9781008988195818
Cs Rb Na Li
1 1 1 3
direct
  -0.0000000157060303    0.0000000029110487    0.6985677119250553 Cs
   0.5000000250226084    0.5000000745713872    0.3184361928161825 Rb
   0.0000000241083260    0.4999999855323731    0.2422967819918864 Na
  -0.0000000150175260   -0.0000000058649713    1.0485238008585307 Li
   0.5000000271798606    0.4999999566028811    0.2942884000326310 Li
  -0.0000000440531553   -0.0000000134488488    0.3645721469662097 Li
