Na1 Sr2 O2
1.0
   3.6169604298951219    0.0620566006158567    0.7131031100575587
   0.1601261446714022    4.8722998609203803   -1.2787677238757267
   0.4135544630608332   -0.9093961345954450    6.4972534616404145
Na Sr O
1 2 2
direct
   0.1393640272303654    0.4622928669143974    0.2319011967242651 Na
   0.3994915891235798    0.1507830256893012    0.6058906382863168 Sr
  -0.2438889496513939   -0.1536722716082141   -0.0013821424714833 Sr
  -0.1876370837960882    0.3034132932929994   -0.0986113321803912 O
   0.1211284331358994   -0.0195549327627687    0.2684016510975468 O
