K2 Li2 Bi1 Sb1
1.0
   5.0764356062787073   -0.0000000019265678   -0.0000000039894356
  -0.0000000020739328    6.8583297834832493    0.1436430872265627
  -0.0000000041196055    0.1414122585373382    6.1817411066528685
K Li Bi Sb
2 2 1 1
direct
  -0.0000000007999778   -0.0260590795254124    0.3751466181272266 K
   0.4999999991739035    0.5339108163755187    0.6451365419834418 K
   0.0000000009962760    0.1624121458649306    0.8654723907816295 Li
   0.4999999994300984    0.3088961612120127    0.1557099229942207 Li
   0.0000000002311671    0.5002597510892418    0.1301503661173444 Bi
   0.5000000007790926    0.0139082047651604    0.8694231546152695 Sb
