Cs1 Te2 S1
1.0
   5.5371468383697042    0.2532300770449497   -0.3431906715367981
   0.2046211792799486    7.4074101702508184   -1.0025732366269502
  -0.3127627490741242   -0.8890145539025005    5.2736003991927056
Cs Te S
1 2 1
direct
   0.0362602958231007   -0.0825184772589344    0.2461481042877353 Cs
  -0.0925782386362645    0.3586386999825835   -0.0111427783063907 Te
   0.0664572264732166    0.4858469675061689    0.5636684378545632 Te
   0.2916507154760601    0.2468268115724659    0.7890212369843529 S
