Rb2 Li4 As1
1.0
   6.0000000000000027    0.0000000000000000    0.0000000000000000
   0.0000000000000000    6.7945136111750326    0.0051226865314683
   0.0000000000000000    0.0050747207991093    6.9293801165416813
Rb Li As
2 4 1
direct
   0.0000000000000000    0.4992808461698683    0.0986525471326965 Rb
   0.0000000000000000    0.4992815163186770    0.0986183866694730 Rb
   0.0000000000000000   -0.0197208333333213    0.8460913799680623 Li
   0.0000000000000000    0.0021988916697617    0.2218772924306324 Li
   0.0000000000000000    0.0214103716413599    0.8181007098492946 Li
   0.0000000000000000   -0.0038394747300940    0.2328039865432970 Li
   0.0000000000000000    0.0013886830038557    0.5274077023831539 As
