Rb1 Zr1 Ag1 S1
1.0
   6.0000000000000000    0.0000000000000000    0.0000000000000000
   0.0000000000000000    9.2377940291926866   -0.9333160146344266
   0.0000000000000000   -0.6646703903290281    4.6003056260074384
Rb Zr Ag S
1 1 1 1
direct
   0.0000000000000000    0.5250648820619117    0.3127561558415783 Rb
   0.0000000000000000    0.0395602076791569    0.6113008273621053 Zr
   0.0000000000000000   -0.1460673081005242    0.0233297556340712 Ag
   0.0000000000000000    0.2885952191863485    0.6978412623253154 S
