Ba1 Si1 Pt1 Au1
1.0
   6.0000000000000000    0.0000000000000000    0.0000000000000000
   0.0000000000000000    4.2042053050316168   -0.0000001397039371
   0.0000000000000000   -0.0000000699445533    9.0251472680704925
Ba Si Pt Au
1 1 1 1
direct
   0.0000000000000000    0.0000000150017301    0.6412240107875080 Ba
   0.0000000000000000    0.4999999878942972    0.3655318786622522 Si
   0.0000000000000000   -0.0000000271991390    0.9457775424169269 Pt
   0.0000000000000000    0.0000000243033751    0.2322325688295766 Au
