Li4 Bi1 Sb1
1.0
   5.9015477707533952   -0.2525516381908482    0.2596332158505555
   0.0070390223259695    4.4927488793196311    1.1075698408171040
   0.1482925845297774    1.0105726310358374    5.0172483826713465
Li Bi Sb
4 1 1
direct
   0.3579814917518606    0.7173443241899603    0.2705891079302556 Li
   0.0815875965552100    0.4324576091840155    0.8189061439603081 Li
  -0.1561627852674577    0.0926775510590438    0.5097507038960665 Li
   0.5730113597344710    0.4115883247719773    0.8953760443882628 Li
  -0.1256779485948383   -0.2146726545048784    0.1171682490757213 Bi
   0.3253932693164476    0.0129078270330270    0.6675827461376833 Sb
