K1 Ca1 H1 Au1
1.0
   6.0000000000000000    0.0000000000000000    0.0000000000000000
   0.0000000000000000    5.8051559901653516   -0.1227351897094074
   0.0000000000000000   -0.0973588251865820    6.9010605608477986
K Ca H Au
1 1 1 1
direct
   0.0000000000000000    0.1210723917417625    0.3954364568210849 K
   0.0000000000000000    0.6044787281948618   -0.0884450259382163 Ca
   0.0000000000000000   -0.0804584313954708    0.7159466263736525 H
   0.0000000000000000    0.1002023162172613    0.9126399299815496 Au
