K2 Li2 Bi1 Sb1
1.0
   5.1984129414925713    0.0000000007243695    0.0000000068032616
   0.0000000005913207    6.8689425811839504    0.5061165281735196
   0.0000000063681344    0.4971709729280178    6.8576401513753140
K Li Bi Sb
2 2 1 1
direct
   0.0000000011261037    0.5219028913371332    0.3327461686925910 K
  -0.0000000000744809   -0.0831290766602527    0.6969050257395164 K
   0.0000000004094915    0.3824880702908154    0.8653634065996210 Li
   0.5000000010808113    0.1910016782205924    0.1415482615855757 Li
   0.0000000008975020    0.0424000703788816    0.1649582475874924 Bi
   0.4999999974732072    0.4814793671915026    0.8093329078659338 Sb
