K1 Mg1 Cl3
1.0
   6.0045200356273298   -0.0126712795084466   -0.0047033915684343
  -0.0141644899115331    7.6101496658837053   -0.7639613390840175
  -0.0036661417414610   -0.7735930322013878    6.3202756261407433
K Mg Cl
1 1 3
direct
   0.2617240642580442    0.5784794468154454    0.5996871745784786 K
   0.2517237742890213   -0.0017118325729236    0.3165582279431225 Mg
   0.2189864962288499    0.2674832570226917    0.2319957964261942 Cl
   0.2559592337978920    0.7147744210663521    1.1049409115146516 Cl
   0.2625234314994681   -0.0003712941758068    0.6728018905430696 Cl
