Sr1 Si2 Rh1
1.0
   6.0000000000000000    0.0000000000000000    0.0000000000000000
   0.0000000000000000    4.2025787290464258   -0.0000006572550939
   0.0000000000000000    0.0000052112088843    6.8896542511589924
Sr Si Rh
1 2 1
direct
   0.0000000000000000    0.4999992262599720    0.0842483659263670 Sr
   0.0000000000000000    0.5000003839084407    0.5660264644932835 Si
   0.0000000000000000   -0.0000002376150825    0.7433067550316111 Si
   0.0000000000000000    0.0000006286507652    0.4017003973983446 Rh
