Cs2 Y2 Se1 O2
1.0
   6.9237711961960500   -0.1258159020626838    0.3673752256758697
  -0.1258161467571272    6.9237436760024877   -0.3673751736561623
   0.3664127451230328   -0.3664133176294354    6.7506383313010900
Cs Y Se O
2 2 1 2
direct
  -0.0602816968721141    0.0602878764596708    0.6743967338581511 Cs
   0.7132551023576521    0.2867575935242960    0.3428875944141122 Cs
   0.3197401755672122    0.6802201130717256    0.4777213516928200 Y
   0.3298165489220305    0.6701937111565808    0.9845596068286666 Y
   0.2805301401502580    0.7194784309662168    0.1282074520746166 Se
   0.0964383752797171   -0.0964386803906675    0.1699628716500731 O
   0.3205003577529604    0.6795019528430141    0.4779994002726888 O
