Cs1 Na1 Cu1 As1
1.0
   6.7063871307201754   -0.0000005079559261    1.0402795441324206
  -0.0000010683832963    4.1910408147845750    0.0000104900187864
   0.7580290043462277    0.0000067081255465    4.5946315351873235
Cs Na Cu As
1 1 1 1
direct
   0.6625428077656544    0.2500018245435609    0.2406141708226262 Cs
   0.1066300392693035    0.7500011174595601    0.4807879340924352 Na
   0.3542996914119576    0.7499985777922477    0.8871040214690873 Cu
   0.2079164738093522    0.2499984809564751    0.9351069021647793 As
