Ba3 Te2 S1
1.0
   5.5026138672618563   -0.0000000005491759   -0.0000000042834696
  -0.0000000016366472    8.6130862205858403   -0.1497641451212800
  -0.0000000031672353   -0.2553184470622801    5.3649060058605018
Ba Te S
3 2 1
direct
   0.4999999991857913    0.1391608189702867    0.2314709277262593 Ba
  -0.0000000001043846    0.1529059971038635    0.7345315304857429 Ba
  -0.0000000000292247    0.6724589115583472    0.7917767705882613 Ba
  -0.0000000000449828    0.4109480171505840    0.2671883576725760 Te
  -0.0000000000798748    0.4110782913100932    0.2671837190531147 Te
   0.0000000001692507   -0.0564560545077399    0.2115657094696502 S
