Ba3 Te2 S1
1.0
   5.8547608027089781    0.0000000075288832    0.0000000004532279
   0.0000000076818329    6.2015086058779438   -0.0050091829416748
   0.0000000004474737   -0.0051673187961067    5.8044670091698505
Ba Te S
3 2 1
direct
   0.0000000001916065    0.4937510226725468    0.1720967852636117 Ba
  -0.0000000001517272    0.4914993614577799    0.3264213768183779 Ba
   0.5000000001834556    0.6357198733171394    0.7550576207000934 Ba
   0.5000000000282143    0.1395276577387361    0.7502470813354213 Te
  -0.0000000000176573    0.4936268748783714    0.2627914543423444 Te
  -0.0000000002176647   -0.0088297851993150    0.2583926742202047 S
