Ba2 Li3 Zn1 Sb1
1.0
   5.0756034170613074    0.0000000022004405   -0.0000000005814785
   0.0000000024610971    6.3828960152392220   -0.3123673833515789
  -0.0000000004154326   -0.3455030459914005    6.4826085407219765
Ba Li Zn Sb
2 3 1 1
direct
   0.0000000001554892    0.4809220072859321    0.0596385262392276 Ba
   0.4999999999614877    0.5768437588695662    0.4272692394399705 Ba
   0.0000000004784785   -0.0398448842248239    0.4663676572543665 Li
   0.0000000000008661    0.3730699300505249    0.7257067046843445 Li
  -0.0000000000847904    0.2372247412356101    0.1494452151163043 Li
  -0.0000000009665356   -0.0588088543960283    0.8426748049984500 Zn
   0.0000000004602290   -0.0305746807804937    0.4492118610894190 Sb
