Ba2 Cd1 S2
1.0
   4.7687299389243538    0.0000000195795490   -0.0000005342559821
   0.0000000195795636    4.7687302873278892   -0.0000002617270825
  -0.0000004127683189   -0.0000002148482674    6.6401891949635132
Ba Cd S
2 1 2
direct
  -0.0000000064090976   -0.0000000019212505    0.1020253571679521 Ba
   0.5000000351313971    0.4999999536370326    0.5841938478657706 Ba
   0.4999999914250404    0.4999999948531881    0.0694145759386089 Cd
   0.4999999820828340    0.5000000570875561    0.0914582930011213 S
  -0.0000000028183396   -0.0000000043081354    0.5995309140371899 S
