Cs2 Li2 Bi1 Sb1
1.0
   5.1822564269541740   -0.0000002927735549   -0.0000003845081590
  -0.0000001927411651    7.1699972973219754    0.1023466530427006
  -0.0000002901525277    0.0992150873662671    6.5150032646283744
Cs Li Bi Sb
2 2 1 1
direct
  -0.0000000037803394   -0.0335985948712885    0.3971937740862776 Cs
   0.4999999863985385    0.5400388633426949    0.6470919685972948 Cs
   0.0000000594624172    0.1494477537703485    0.8966504930619025 Li
   0.4999998973196455    0.3262247061468697    0.1705078326346867 Li
   0.0000000288958068    0.4819484211462418    0.1276605157431382 Bi
   0.5000000305489827    0.0340878462292525    0.9073094025385492 Sb
