Na2 Ag1 Bi1 Sb1
1.0
   5.9999999999999982    0.0000000000000000    0.0000000000000000
   0.0000000000000000    5.4737995699920958    0.0000001167415690
   0.0000000000000000    0.0000001035593479    9.0467259979556260
Na Ag Bi Sb
2 1 1 1
direct
   0.0000000000000000    0.0000000119445433    0.9052137603666237 Na
   0.0000000000000000    0.5000000427230062    0.3428963660427650 Na
   0.0000000000000000    0.0000000175333612    0.5695212367459926 Ag
   0.0000000000000000    0.0000000288853971    0.2561705127757599 Bi
   0.0000000000000000    0.4999999005790542    0.6756371417846661 Sb
