K2 Sc1 S2
1.0
   3.8718757546876521   -1.0720251320317553   -0.0758074578563587
  -1.0720030832902765    3.8718677100960299    0.0758090943589175
  -0.2773097698014055    0.2773120618631532   11.9704061376233817
K Sc S
2 1 2
direct
  -0.0211063939736731    0.0211055355164679   -0.0388127297648383 K
   0.3558936076537853    0.6440996397550288    0.5321126701946205 K
   0.6657128359502654    0.3342836145879120    0.2472764757478770 Sc
   0.0103673112144211   -0.0103643392764699    0.3613812407939828 S
   0.3224655837833499    0.6775425706238710    0.1312902988878910 S
