Rb2 Te1 O1
1.0
   6.0000000000000000    0.0000000000000000    0.0000000000000000
   0.0000000000000000    4.2549758583162891   -0.0000128293148737
   0.0000000000000000   -0.0000050049454219   11.0140393955223761
Rb Te O
2 1 1
direct
   0.0000000000000000   -0.0000000028541201    0.1572844784052515 Rb
   0.0000000000000000    0.4999998839427727   -0.3181588166715915 Rb
   0.0000000000000000    0.5000024924626165    0.3952306737486910 Te
   0.0000000000000000   -0.0000023758957058    0.4530746760734568 O
