Cs1 Rb3 Te1 O1
1.0
   5.7169480612532348    0.2352874757436398    0.2042803303662923
   0.2530262896792029    5.3525739932044969   -0.2556661559911053
   0.1926258401607601   -0.2319988181446532    5.7563333826486760
Cs Rb Te O
1 3 1 1
direct
  -0.0256279085929361    0.4806171631209568    0.2886686822715891 Cs
  -0.1166441118942504    0.0171298212539277   -0.1727240472369864 Rb
   0.4214704893011065    0.5765790162520261    0.8395327232689914 Rb
   0.4476286771330251    0.0093008077140866    0.3741261741994517 Rb
  -0.0273729468427303    0.4820941710881209    0.2902653347798891 Te
   0.3056777984376325    0.1269400181123790   -0.0390888629553162 O
