Cs1 Y1 Sc1 S1
1.0
   3.8037581310325677   -0.3852292969779958    0.1008193444188599
  -0.2327386272480236    7.8676522203792283    0.4503949466479514
  -0.1660185374516143    0.4908756623475026    5.2794389950924785
Cs Y Sc S
1 1 1 1
direct
   0.2929183806343894    0.5172639279867570    0.7821767175448786 Cs
  -0.0331890508185547   -0.0222972751369776    0.0037501211408854 Y
   0.4912861480486010    0.0598873694935644    0.4797418636841903 Sc
   0.4156505135359855    0.7784799857868848    0.2536933023379152 S
