Ba3 Se2 O3
1.0
   5.9625193165948440   -0.0290974521862468    0.0118760908743943
  -0.0290974521994033    5.9625193160377563   -0.0118761283908029
   0.0117346600768226   -0.0117346963542140    6.3472701436228842
Ba Se O
3 2 3
direct
   0.0032675567922108   -0.0032675624553680    0.7764218280572024 Ba
   0.3100679423519034    0.6899320368450739    0.2471980846803882 Ba
   0.6916836980313127    0.3083163029086001    0.2789699822131273 Ba
   0.3264417348816967    0.6735582735705994    0.2946674971915013 Se
   0.3591166400770767    0.6408833440347214    0.9099243709155291 Se
  -0.0139947020947092    0.0139947031400732    0.1572164928922213 O
  -0.0141281970660388    0.0141281974252199    0.4029254692392871 O
   0.3375443269853483    0.6624557039996063    0.5848132706758465 O
