Ca1 Se1 O2
1.0
   3.4737182816061347    0.9426184329769360   -0.0106595815533741
   0.6225303729584166    3.8759576024514888   -0.5857808592833742
   0.0734255377182347   -0.7647525943109594    5.5481802581478066
Ca Se O
1 1 2
direct
  -0.1785010373046780    0.9884506038513846   -0.0503266933493659 Ca
   0.4551710211972338    0.5786414534042630    0.4223693511560108 Se
   0.3086961198969629    0.0009233936987926   -0.3120716077195717 O
   0.4580778872628561    0.6819845453210066    1.1159359550603525 O
