Ba1 Li1 Ag1 S2
1.0
   5.9441312068714236    0.0000000289536869    0.0000000833801458
   0.0000000368341131    4.2060323629469156    0.0000028767754954
   0.0000000851795945    0.0000023858694404    5.9261544555868024
Ba Li Ag S
1 1 1 2
direct
   0.5000000096048530    0.4999998778892768    0.7348446074262880 Ba
  -0.0000000985333094    0.0000044840828968    0.3759020343573720 Li
   0.0000001131026399   -0.0000063203010735    0.4284239144249684 Ag
  -0.0000000145617248    0.5000020284425712    0.6358914717675539 S
   0.4999999878950069    0.4999999279374706    0.2325959754206282 S
