Ba3 Te1 Se2
1.0
   4.3629620784011918    0.0000002185693028    0.0000012378277883
   0.0000001911955012    4.5924965019296655   -0.0000018514121105
   0.0000004501188555   -0.0000006648242973   13.9156772573290972
Ba Te Se
3 1 2
direct
   0.0000000396739104    0.5000000316259250    0.2383782263653664 Ba
   0.0000000038585635    0.4999998092703470   -0.0824455423936993 Ba
  -0.0000001621339703   -0.0000000404912037    0.5132498353250448 Ba
   0.0000001276349174    0.5000001617025677    0.6854879438483542 Te
   0.4999999813101891    0.0000000821679082    0.3415699149580206 Se
   0.0000000065375561   -0.0000000390497900    0.0659796106043438 Se
