Ba1 Si2 Rh1
1.0
   6.0000000000000000    0.0000000000000000    0.0000000000000000
   0.0000000000000000    4.1452931380124483   -0.0000014683677124
   0.0000000000000000   -0.0000008763380447    8.2041350201562260
Ba Si Rh
1 2 1
direct
   0.0000000000000000   -0.0000000679025057    0.6483704073824033 Ba
   0.0000000000000000    0.5000000860273758    0.1945440739061597 Si
   0.0000000000000000   -0.0000001368586783    1.0332087701051926 Si
   0.0000000000000000    0.0000001187440677    0.3253277681526225 Rh
