Rb1 Sr2 Sc1 S1 O3
1.0
   5.9504375917016610    0.0248588324744419   -0.0043847701794747
   0.0248588324150212    5.9504376482975285    0.0043848247319713
  -0.0039736790208672    0.0039737326058199    6.3587504739261158
Rb Sr Sc S O
1 2 1 1 3
direct
   0.3407074918909099    0.6592923684451452    0.3861490330575222 Rb
   0.3210473255837317    0.6789530285804904    0.7554307037055437 Sr
   0.6695910321110659    0.3304089546163621    0.2989679155118739 Sr
   0.6749179402347397    0.3250820755431055    0.2303975057937181 Sc
   0.3414638813208629    0.6585360605940198    1.1460822938342505 S
  -0.0101996828332173    0.0101996868300610    0.1907429833044033 O
  -0.0114355051654948    0.0114355011189831    0.4221721989910746 O
   0.3405735170917539    0.6594263249483300    0.4486703684137627 O
