Ba3 Te1 Se1 S1
1.0
   4.9093248157057827    0.0000000725837993   -0.0000001080901576
   0.0000000728396346    8.3649199276268096    1.6575195988386682
  -0.0000000741147845    1.3919610181493827    6.5380886833787937
Ba Te Se S
3 1 1 1
direct
   0.0000000510617358    0.0671955648657151    0.3134353998751931 Ba
   0.4999999715737808    0.4175625208008133    0.6456910891294242 Ba
   0.4999999593939733    0.8312653637375553   -0.0754885244979727 Ba
   0.4999999897386152    0.3995488114625435    0.1551071076624416 Te
   0.0000000134831558    0.1094383561823542   -0.2055464185633940 Se
   0.5000000216699030   -0.1810125967330298    0.4284843759492437 S
