Ba3 Te1 S2
1.0
   6.0528532325251074   -0.0000000003960236   -0.0000000034447109
  -0.0000000003916863    6.1524919767944919   -0.0000000032432834
  -0.0000000035242933   -0.0000000032592315    6.1824757148001837
Ba Te S
3 1 2
direct
   0.5000000001452963    0.5000000001372574    0.6395219732361249 Ba
  -0.0000000000002187   -0.0000000000326380    0.3503890694755623 Ba
  -0.0000000000090530    0.0000000000184773    0.5324813819083961 Ba
   0.0000000000064358    0.5000000000058571    0.4995780610823095 Te
  -0.0000000000744777   -0.0000000000774047   -0.0404262527369580 S
   0.4999999999592830    0.4999999999672410    0.5067517649923540 S
