Cs1 Na1 Sb1 F3
1.0
   5.9439727076555338   -0.0329459472397461   -0.0032696819920502
  -0.0328067764569699    5.8899513729401871   -0.0100931518202426
  -0.0032440402086445   -0.0101217295454099    5.9010040466497768
Cs Na Sb F
1 1 1 3
direct
   0.3204722217996720    0.2489442938816088    0.5341190920953801 Cs
   0.3263207234402198    0.7403870002438652    0.1057703288670188 Na
  -0.0037432534574189    0.0147110824577222    0.0008253711100901 Sb
   0.3274302593190505    0.7512438501036343    0.1087433087310173 F
   0.2671433130282808    0.2459684500276899    0.4895098222446878 F
   0.2653187375701547    0.2297183229471366    0.0131910781397264 F
