Cs1 Rb1 Li2 Bi1 Sb1
1.0
   5.2695542520841281    0.0000000356335491    0.0000000866401467
   0.0000000209078718    5.9924227726906905    0.4650309525756404
   0.0000000642109905    0.4966110027859107    6.5731916245600122
Cs Rb Li Bi Sb
1 1 2 1 1
direct
   0.4999999964921272    0.5271557077189317    0.5547425335091507 Cs
   0.0000000029741025   -0.0077898268695794    0.3896999889497818 Rb
  -0.0000000519976562    0.1026262945202009    0.8960554634758731 Li
   0.5000000297768697    0.3752716843759775    0.0671565897509239 Li
   0.0000000037251823    0.5658104647138898    0.0259812584046293 Bi
   0.5000000212333083   -0.0685503266918138    0.9480911644532288 Sb
