Ba3 Te2 S1
1.0
   6.2478242660130441    0.0000000004349557   -0.0000000066629354
   0.0000000003784423    5.8884005855051429   -0.0000000019866150
  -0.0000000066378891   -0.0000000019346429    6.1648917442501867
Ba Te S
3 2 1
direct
   0.0000000095413564   -0.0000000024093952    0.9132000555011047 Ba
   0.5000000055847024    0.5000000000272797    0.3715976632952274 Ba
   0.0000000067076685   -0.0000000018597940   -0.0445029222077175 Ba
   0.0000000012336565    0.5000000028933652    0.2209395179386381 Te
   0.0000000007975184    0.4999999976359092    0.2046018715068232 Te
  -0.0000000235752004    0.0000000035473794    0.4244958188150044 S
