K1 Te1 Pd1 Au1
1.0
   6.0000000000000000    0.0000000000000000    0.0000000000000000
   0.0000000000000000    6.3311975950400283    1.0194494168552770
   0.0000000000000000    0.7826806891566050    6.0228162715863043
K Te Pd Au
1 1 1 1
direct
   0.0000000000000000    0.2812071221988618    0.3791198064121442 K
   0.0000000000000000    0.6452779826049908    0.8066987541573107 Te
   0.0000000000000000   -0.0140864808678852    0.9156860786752760 Pd
   0.0000000000000000   -0.2133156187159244    0.3584643554598897 Au
