Rb1 Y1 Cu1 S1
1.0
   4.3958439613287421   -0.0024606008071154   -0.0450460206704391
  -0.0024605423487928    4.3958411417115810    0.0450459059935331
   0.0247914706188366   -0.0247916297763554    5.9675180532742624
Rb Y Cu S
1 1 1 1
direct
   0.4366168506378306    0.5633830556451336    0.6032553721319378 Rb
  -0.0936725233191076    0.0936724795470188    0.1062426247032542 Y
   0.3903982671411683    0.6096018912225210    0.0984000141935659 Cu
  -0.0666766077748710    0.0666765622693967    0.5834859958477064 S
