Rb2 Mg1 In1 S2 O2
1.0
   6.3095112365093096   -0.2940529054703735    0.0352549242620446
  -0.3060274350484549    5.7889360021558183    0.9122759834917762
   0.0151277386928798    0.8380268959849362    6.7841071839540392
Rb Mg In S O
2 1 1 2 2
direct
   0.5541372331852705    0.7560723399537935    0.6211436421390184 Rb
   0.5236640442891152    0.2813759373667520    0.1674114440571597 Rb
  -0.0043381483296155    0.0070104615279884    0.0792155969218873 Mg
   0.0273027681658884    0.3193080489058263    0.4652067468100298 In
   0.2827654271363021    0.7492856793300754    0.1257261688080885 S
   0.8231445931465763    0.2320997395284349    0.7803911871675050 S
  -0.1041149157526225    0.0915217713343415    0.3137234823515764 O
   0.2974389696203346    0.5633260239983289    0.3629827782272818 O
