Rb1 Na1 Cu1 As1
1.0
   4.1134019371984465    0.0551674387287439    1.0304326971359048
  -0.0643679495397861    6.2573976679423433    1.0529784722634088
   0.8578495186667077    1.0050146460060949    5.2984794122766923
Rb Na Cu As
1 1 1 1
direct
  -0.0682792808462564    0.7023030468055355    0.2417137116401300 Rb
   0.2132315120060002    0.2726661286367475    0.8984996608950234 Na
  -0.1222584246969335    0.0995473300468236    0.5477580808092087 Cu
   0.4635441881033449    0.1754834926877494    0.3610155501215183 As
