Ba2 Cd1 Sb1 As1 P1
1.0
   4.3841979988369557    0.0000004286995402   -0.0000017158814567
   0.0000003079013852    5.6781327586338906   -0.0000295095087116
  -0.0000011116342676   -0.0000240064747824    7.8220815631530929
Ba Cd Sb As P
2 1 1 1 1
direct
   0.0000001812673744    0.0000016253684766    0.7219166140846075 Ba
   0.5000001183702105    0.4999976894118194    0.2943986620169128 Ba
  -0.0000001296438330    0.5000085797688274   -0.0377816317754554 Cd
   0.4999998807594694    0.5000004185942490    0.7306530296554917 Sb
  -0.0000002598027872   -0.0000044824769547    0.2308219215197310 As
   0.5000002082831106   -0.0000038361737577    0.0829403749513346 P
