K2 Sc1 S1 O3
1.0
   5.0579566106028988   -0.0680037312125846   -0.3817786128933873
  -0.0679095868308669    5.0577979489467451    0.3784957255727983
  -0.3610052085707463    0.3580609339195263    6.6310602717504992
K Sc S O
2 1 1 3
direct
  -0.0475870995473780    0.0479206153903898    0.5491204017261647 K
   0.2919044278703971    0.7080137860748621    0.2396742832310879 K
   0.7859174815629114    0.2128022650223127   -0.1680511373615133 Sc
   0.4352897977319550    0.5655261872610240    0.8383277086274984 S
  -0.0518298223407799    0.0528458276177958    0.0730895760282034 O
  -0.0563709920675034    0.0566191891573468    0.5640526685915500 O
   0.3093422117141232    0.6896061310518817    0.6123264967024211 O
