Cs1 Rb1 Na2 Li1 Sc1 As2
1.0
   7.3687758290842629   -0.8676720883114197   -0.3554158004216933
  -0.7570025630529236    4.6526643831963153   -0.6535401768187357
  -0.2865018224085037   -0.5900840613443188    8.3350661976002769
Cs Rb Na Li Sc As
1 1 2 1 1 2
direct
   0.0293893794663460   -0.0378386083501942    0.8670774941975420 Cs
   0.4935166898329212    0.8046161756377039    0.1480844774960871 Rb
   0.5707408172006394    0.1901822063696899    0.7984572405160721 Na
   0.6760615281922998    0.5622257172152160    0.4820455543839141 Na
   0.3117959051191101   -0.0226545066713603    0.5075414133879269 Li
   0.0708991658962645    0.3361870258743889    0.4089481768095763 Sc
  -0.0016252538788335   -0.2346946960868166    0.2883814826779174 As
   0.3358387927138577    0.5408096758387327    0.6559711641783988 As
