Rb1 Na1 Cu1 As1
1.0
   5.1204602446616185    0.1658315525414482    0.1315924977932156
   0.1452796804807956    5.7106742018077075    0.5147559174689451
   0.1247739521809501    0.4556878981191527    4.9728202349424420
Rb Na Cu As
1 1 1 1
direct
  -0.0717380133943058    0.3275904754139293    0.6957407879592948 Rb
   0.4042171079787916    0.7426418775636706    0.0755825460401276 Na
   0.4843629895951207   -0.0516060848731231    0.5505926041683903 Cu
   0.4062509264431441    0.2313737316514808    0.1934070571396177 As
