Rb3 Br1
1.0
  10.1404537637831460    0.0000046714576613   -0.4928702321181347
   0.0000073876034234    5.2717653058271328    0.0000037492114770
  -0.3548462513197031    0.0000021088294072   10.5130108118115206
Rb Br
3 1
direct
  -0.1430983116739855    0.7499994015971841    0.5484727481428766 Rb
   0.2418234403137478    0.7500003552961549   -0.1425253399912024 Rb
   0.3003405814901518    0.2499999741290632    0.4003697400001185 Rb
   0.0942822786023674    0.2500002608275933    0.6347408437345895 Br
