Ba2 Li1 Cd1 Bi1 Sb1
1.0
   6.6505157896408456    1.3417706853259084   -0.2538910122603932
   1.0562014147710752    4.9846436030734580    0.7292964700557547
  -0.1391614088290537    0.6006578221007151    6.8891697492313027
Ba Li Cd Bi Sb
2 1 1 1 1
direct
   0.1250737957102299    0.7537958515511142    0.7185879188058738 Ba
   0.4809033479318408    0.2443131965815644    0.2829695558835675 Ba
   0.7367671405782922    0.3953386470780816    0.8434337808678797 Li
  -0.1560162411853986    0.6157995596715479    0.1698421920581758 Cd
   0.0816434198120862   -0.0065293869263419    0.1811721950442241 Bi
   0.5540915055088841   -0.0027178811780951    0.7974453767176665 Sb
