Cs2 Na2 As1 S1
1.0
   5.9934455866395187    0.0000000094396495    0.0000000018729229
   0.0000000092723542    5.7302056341014609    0.0888287446030683
   0.0000000017859662    0.0980229876806114    6.0947472309087782
Cs Na As S
2 2 1 1
direct
   0.0000000000552359   -0.0416038211987598    0.7180849490808304 Cs
   0.5000000001262244    0.5278079448923654    0.6298400237208278 Cs
   0.0000000014141096    0.2533580493761466    0.2796995968085528 Na
   0.4999999999977265    0.3096403446695717    0.2149259222494451 Na
   0.5000000002465692   -0.1493903330130214   -0.0861144165735496 As
   0.4999999985994105    0.5815368182845919    0.6304879283192496 S
