Cs1 Na1 Sc1 F2
1.0
   3.2888106891175166    0.2462174801946603   -0.8854369810975096
   0.1623148246726985    3.4878296088837204   -0.1443152819044184
  -0.1491286996692994   -0.3187518915202031   10.9904540914685178
Cs Na Sc F
1 1 1 2
direct
  -0.2158775129526048   -0.1133460492635399   -0.0946016252715460 Cs
   0.1428698712780530    0.3697418459187921    0.2328498006788764 Na
   0.0313477408190051   -0.0593344053857339    0.5192770180260488 Sc
   0.3906935196165219    0.3843860081594062    0.0668760373615995 F
  -0.0649055966097374   -0.0881774144837864    0.3256878062366315 F
