Rb1 Bi1 Te1 S1
1.0
   6.0000000000000000    0.0000000000000000    0.0000000000000000
   0.0000000000000000    5.8696746763754080   -0.0000000086031181
   0.0000000000000000   -0.0000000087822919    6.0223218648428718
Rb Bi Te S
1 1 1 1
direct
   0.0000000000000000   -0.0000000000193058    0.9221933390658135 Rb
   0.0000000000000000    0.5000000011925285    0.2127350252134630 Bi
   0.0000000000000000    0.4999999987793067    0.2622738528241122 Te
   0.0000000000000000    0.0000000000306362    0.4764157809480269 S
