Li1 Zn1 In1 Rh1
1.0
   3.2052669924482240    0.0027639776678012   -0.0141138646493382
   0.0027613122040592    3.2052497008505751   -0.0141131856078444
  -0.0591028023035314   -0.0591050436236874    6.2993521028089683
Li Zn In Rh
1 1 1 1
direct
   0.3659028246916308    0.3659023100902504    0.2224108622509975 Li
  -0.1261477477512246   -0.1261473630439210   -0.0187224769565853 Zn
  -0.1140364399015440   -0.1140362789567535    0.5150361008523342 In
   0.3742813630502502    0.3742813379679604    0.7812755188499748 Rh
