Mg1 Cd1 Pd1 Au1
1.0
   3.7852756085489898    0.6588147237726546    0.0081338687012682
   0.6588150908059475    3.7852790370972191    0.0081342735553305
  -0.0014027786616708   -0.0014034221722548    6.0022867412701197
Mg Cd Pd Au
1 1 1 1
direct
   0.3089146921204042    0.3089147752246035    0.2530918812518661 Mg
   0.3147916905601917    0.3147918312197991    0.7422886718246824 Cd
  -0.0591034588933892   -0.0591036788062870    0.4919046542145413 Pd
  -0.0646029249780278   -0.0646029237474680    0.0127147862440397 Au
