Ba3 Te2 S1
1.0
   6.0257474265371656   -0.0000002602181226   -0.0000412433551067
  -0.0000002603400503    5.9754804770320451    0.0000000092978149
  -0.0000414177659097    0.0000000052488400    6.0066208041639300
Ba Te S
3 2 1
direct
   0.5000011922077655    0.5000000255883291    0.6684121452758984 Ba
  -0.0002123073661832   -0.0000042617974857    0.3202192975316909 Ba
  -0.0000018521277062    0.5000002527493032    0.5933914745677017 Ba
   0.4999897794082531    0.4999997979981960    0.2235091846316302 Te
   0.0016328660401298    0.0000332030460304    0.2589149477970681 Te
  -0.0014096782036057   -0.0000290176139835    0.2707659502239482 S
