Ba2 Mg1 Bi1 As1
1.0
   6.5610692370956096    0.0000000013531487   -0.0000000077969559
   0.0000000013467775    6.2108801569180070   -0.0000000055911664
  -0.0000000077674579   -0.0000000057319194    6.3707085711145366
Ba Mg Bi As
2 1 1 1
direct
  -0.0000000000442331   -0.0000000000973185    0.7008642213212446 Ba
   0.4999999995275514    0.4999999995484932    0.3562247027073620 Ba
  -0.0000000000076810    0.5000000000242903    0.9673160939809079 Mg
   0.4999999999400990    0.4999999999530317    0.2069905145506906 Bi
   0.0000000005046695    0.0000000004511300    0.7664554631472797 As
