K2 Mg2 Bi1 Te1
1.0
   5.8500508126873951   -0.0000000035310032   -0.0000000105277423
  -0.0000000033758182    5.9851315279136905    0.3315238796365084
  -0.0000000100381470    0.3381072316151389    6.7362618208768215
K Mg Bi Te
2 2 1 1
direct
  -0.0000000008725343    0.0634408939591620    0.5093366024614877 K
   0.5000000012828535   -0.0937700638364039    0.8374105349710966 K
  -0.0000000002316518    0.5726467631198220    0.3251803352257145 Mg
   0.0000000004804726    0.3342628193047723   -0.0251579032309056 Mg
   0.5000000002753693   -0.1237934288314365    0.3077836134004988 Bi
  -0.0000000015504099    0.6076140156102544    0.2846498113352502 Te
