Ba1 Li1 Re1 O2
1.0
   4.5409961912860890    0.0134900799458431   -0.2241429290222803
  -0.0063971139539585    5.3252503503482096    0.1376092074270902
  -0.2451878613254627    0.1274930072794539    5.4758550753413751
Ba Li Re O
1 1 1 2
direct
  -0.2447424895088139    0.5168311798720118    0.0980950436884975 Ba
   0.0602736571879506   -0.0316324212385393    0.6113794808012651 Li
   0.2078578889911777   -0.0301032637453027    0.0920157727293276 Re
   0.2552076151294933    0.7122413527917889   -0.1147049190959075 O
  -0.0533906745232401    0.0883461529037170    0.2951956333403346 O
