Ca1 Cd1 Se1 O1
1.0
   3.4589347546795564    1.0546205475288684    1.1082134802439805
   0.9241144231783961    3.8243554116815051    0.1175630616355635
   0.0398566509137338    0.1233342753519815    7.0779566777767577
Ca Cd Se O
1 1 1 1
direct
  -0.2521247447027644   -0.0659676864050008   -0.0861010636768942 Ca
   0.2176959944052242    0.2822079670206720    0.4976966453616079 Cd
   0.0599799477764924   -0.1341635098832357    0.2752693508815837 Se
   0.1388728004167136    0.2515302310851947    0.8201050449411967 O
