Cs2 Rb1 Li6 Sb1
1.0
   6.3636040471611803    0.0000000021784254   -0.0000000111927297
   0.0000000022110297    6.2073839656174847    0.0018219224751670
  -0.0000000132002922    0.0026286717086150    7.4977448861282845
Cs Rb Li Sb
2 1 6 1
direct
  -0.0000000001239178    0.0000983850496568    0.4316545503558888 Cs
   0.5000000005061184    0.5017765546900336    0.5456514317811523 Cs
  -0.0000000009764739    0.4996518211984352    0.9721161257157453 Rb
   0.5000000004697829   -0.0130125279651822    0.3736103024469152 Li
   0.5000000001811016    0.0169268221899484    0.3736453299907680 Li
   0.5000000000343815   -0.0052129136491614    1.0438359474963266 Li
   0.5000000008898323    0.4971715166732860    0.8847414846911849 Li
  -0.0000000005925193    0.0000936654092373    0.4051742093137130 Li
   0.4999999999410442    0.5000598509074913    0.2152132927970670 Li
   0.5000000002190405    0.0024468224059515    0.7211263013614405 Sb
