Ba1 Al2 Au1
1.0
   6.0000000000000000    0.0000000000000000    0.0000000000000000
   0.0000000000000000    4.4357959388028156    0.0000000410202365
   0.0000000000000000   -0.0000000046074487    9.0541090441683494
Ba Al Au
1 2 1
direct
   0.0000000000000000   -0.0000000114834948    0.9444163386102127 Ba
   0.0000000000000000    0.5000000116645953    0.4001303820649924 Al
   0.0000000000000000    0.0000000054582167    0.5735992392419379 Al
   0.0000000000000000   -0.0000000092334622    0.2786760511761919 Au
