Ba1 Mn1 S1 O1
1.0
   6.0000000000000000    0.0000000000000000    0.0000000000000000
   0.0000000000000000    4.1659352418344939   -0.0000003504381500
   0.0000000000000000   -0.0000002894124256    7.7044997040134016
Ba Mn S O
1 1 1 1
direct
   0.0000000000000000    0.4999997908898283    0.1737065094655238 Ba
   0.0000000000000000    0.4999998326729878    0.6388095427345172 Mn
   0.0000000000000000   -0.0000000113431831    0.4738710111079731 S
   0.0000000000000000    0.5000003871532952    0.8797939492867345 O
