Li2 Bi1 Au1
1.0
   6.0000000000000000    0.0000000000000000    0.0000000000000000
   0.0000000000000000    4.9841112290641005    0.5004839016956235
   0.0000000000000000    0.4892652180511411    5.3545133805787009
Li Bi Au
2 1 1
direct
   0.0000000000000000   -0.0264560692878151    0.5302385066915943 Li
   0.0000000000000000    0.2415034441120399    0.9578560973718295 Li
   0.0000000000000000    0.5247744804620217    0.3514126472163852 Bi
   0.0000000000000000    0.5101781443942575    0.3056647516866668 Au
