Li1 Zn2 Co1
1.0
   3.0705089813737203    0.0000655894216417   -0.0177579769786467
   0.0000670899013823    3.0705187387741799   -0.0177586367963793
  -0.0088054185470697   -0.0088050656166164    5.4267869338062038
Li Zn Co
1 2 1
direct
   0.3747325437425455    0.3747326558470524    0.7690483545050292 Li
  -0.1204015014959557   -0.1204017799748036    0.5148640387282380 Zn
   0.3740552292954032    0.3740552390900523    0.2226360223550091 Zn
  -0.1283862667475985   -0.1283861135905777   -0.0065483951153643 Co
