Cs1 Na1 As1 F1
1.0
   6.0000000000000000    0.0000000000000000    0.0000000000000000
   0.0000000000000000    5.9638484221398516    0.2656440517741387
   0.0000000000000000    0.2643472951916724    6.5336100144861415
Cs Na As F
1 1 1 1
direct
   0.0000000000000000   -0.0722488997008489    0.9244173807627281 Cs
   0.0000000000000000    0.2563029746756407    0.2690729384747779 Na
   0.0000000000000000    0.2337606123305977    0.2985686557335503 As
   0.0000000000000000   -0.0150276848328352    0.5015830249775819 F
