Ba1 Si2 Rh1
1.0
   6.0000000000000000    0.0000000000000000    0.0000000000000000
   0.0000000000000000    4.1452913307050254   -0.0000057395787525
   0.0000000000000000   -0.0000032770154009    8.2041607270107413
Ba Si Rh
1 2 1
direct
   0.0000000000000000   -0.0000002060527727    0.6483700184916081 Ba
   0.0000000000000000    0.5000002200081485    0.1945425965848929 Si
   0.0000000000000000   -0.0000004422093296    1.0332089142316438 Si
   0.0000000000000000    0.0000004294061705    0.3253284555676244 Rh
