Cs1 Na1 Cd1 As1
1.0
   6.0000000000000000    0.0000000000000000    0.0000000000000000
   0.0000000000000000    4.1009005701033825    0.0000021534690924
   0.0000000000000000    0.0000012672174683    7.3480730269612575
Cs Na Cd As
1 1 1 1
direct
   0.0000000000000000    0.4999972880786202   -0.0162273460356741 Cs
   0.0000000000000000    0.5000000271027003    0.5197317390094661 Na
   0.0000000000000000    0.5000026554307100    0.0357880433051224 Cd
   0.0000000000000000    0.0000000312883309    0.2525525642544868 As
