Sr1 Si2 Pt1
1.0
   6.0000000000000000    0.0000000000000000    0.0000000000000000
   0.0000000000000000    4.1699427998668144    0.0000000662026841
   0.0000000000000000    0.0000000808421706    8.4164984648967920
Sr Si Pt
1 2 1
direct
   0.0000000000000000   -0.0000000058236035   -0.0076284885588263 Sr
   0.0000000000000000    0.4999999865785713    0.2746536260339791 Si
   0.0000000000000000    0.0000000199033229    0.3885901950813137 Si
   0.0000000000000000   -0.0000000004896625    0.6456306614466902 Pt
