K2 Cd1 Bi1 As1
1.0
   5.3709179757310572   -0.0000000047811576   -0.0000000083267546
  -0.0000000049935742    4.9723135144998061   -0.0000001236016215
  -0.0000000058316971   -0.0000000554890142    7.6828455232653567
K Cd Bi As
2 1 1 1
direct
   0.0000000003207351    0.0000000159359313    0.2847599652231941 K
   0.4999999999633011    0.4999999810762440    0.6570620461147763 K
  -0.0000000008771014    0.4999999111440218   -0.0423389998869799 Cd
   0.4999999995319567    0.5000001155892216    0.1470365552554194 Bi
   0.4999999991343836   -0.0000000249967760    0.9647874291278037 As
