Cs1 Na1 Cd2 Sb1
1.0
   4.3567324099311850   -0.0000000064139929    0.0000000119156801
  -0.0000000041554441    7.7079672307053499   -0.0142789842280148
   0.0000000089833669   -0.0186110903786467    7.8635382503681575
Cs Na Cd Sb
1 1 2 1
direct
   0.0000000014851956   -0.1579726794991588    1.0178122168778430 Cs
   0.0000000012459269    0.4033517209274861    0.4606634756746232 Na
   0.0000000003974328   -0.2027011706678270    0.5460129129879544 Cd
  -0.0000000032669235    0.3673944402400554   -0.1353039067863579 Cd
   0.5000000005745872    0.5869456806295978    0.7126003100165442 Sb
