Cs1 Na4 As1
1.0
   5.1438705056132337   -0.0931734873836048    0.1649444467282923
  -0.0974303854416307    6.1584170956557553   -0.0015539803523511
   0.1435304588421321    0.0184854347367813    7.6577191987536430
Cs Na As
1 4 1
direct
   0.2035196592484791    0.6791248050864048    0.2397956879693491 Cs
  -0.0585370365182442    0.5448602975844391    0.6634684120346606 Na
  -0.0393275539557130    0.1540081432749009    0.9724350475217066 Na
   0.4874461965732557   -0.0958626724262097    0.7620792251760664 Na
   0.5331794933786901    0.1762092915141496    0.4081830578736019 Na
   0.0081002355439650    0.0516571325844204    0.5921245694747987 As
