Cs2 Y2 Se1 O2
1.0
   6.0619626894707235   -0.1612591333025272   -0.0132219870700450
  -0.1615620130906721    6.2465398231500036    0.0578171680626180
  -0.0122756388314849    0.0574263219187132    6.6172831311116438
Cs Y Se O
2 2 1 2
direct
  -0.0642456358973313    0.0648122239302566    0.6809658979926257 Cs
   0.6752163501575716    0.2958201508980343    0.2457055643745205 Cs
   0.2594931954232243    0.7044462733109388    0.4483205641076826 Y
   0.2800426217431661    0.6908209405182745    0.9653998007186357 Y
   0.0659845750800682   -0.0768929927634257    0.1715547669646819 Se
   0.0539615478413973   -0.0651758513933707    0.1897998649861907 O
   0.0635343472012361    0.4496982541702663    0.4809115484705598 O
