Cs1 Rb1 In2 Br2
1.0
   5.8977401108355867   -0.0156518562724591   -0.0284566886831870
  -0.0156518557892540    5.8977401982896787    0.0284566257122013
  -0.0281660619405908    0.0281660057912251    6.7906718742094885
Cs Rb In Br
1 1 2 2
direct
  -0.0033897578480799    0.0033897548523697    0.2253341556328231 Cs
   0.3314697702443732    0.6685302114930813    0.8715986239726783 Rb
   0.3431370141119525    0.6568629297620675    0.2767313254224446 In
   0.3089084143385162    0.6910916274355527    0.4675504793311801 In
   0.3417689720861540    0.6582310328240975    0.4178474978787221 Br
   0.0114375873691738   -0.0114375554045421    0.2747969166951961 Br
