Cs1 Na1 Sc1 F2
1.0
   3.6100665497225366   -0.2644330087384920   -0.4467860153987992
  -0.1526338240994409    7.9417677492749039   -1.4141839113526253
  -0.3908049638933050   -1.1928179408978683    6.1631719128712863
Cs Na Sc F
1 1 1 2
direct
  -0.1028657428127706    0.5366196424674120    0.2538949667300454 Cs
   0.0443032256901802   -0.0461732029912785   -0.0386836769726323 Na
   0.1156169487990443    0.1468678926476487    0.5680642058405270 Sc
   0.1744191059131540    0.2265639552775967   -0.0927501312484178 F
  -0.0030605313541935   -0.0797012836159638    0.3095626264637931 F
