Rb1 Sc1 S2
1.0
   4.1606292188753553    0.7020246138467916    0.0455960080071255
   0.7660092438814409    3.6042387067810391   -0.1489145604889824
   0.0096825590038328   -0.0071104248855627    7.9171756758351783
Rb Sc S
1 1 2
direct
  -0.0555273470229585    0.3247142557082204    0.5095304988598942 Rb
   0.4945034431372419    0.0810176368555004    0.0101074625235458 Sc
   0.3508494652771900    0.6205225831460226    0.8058500079285623 S
   0.3768404411727950    0.6572565327396953    0.2215160233953835 S
