K1 Na1 Ca1 F2
1.0
   3.3678976310374757    0.2019233687762418    1.2839336662366381
   0.0663158671858589    6.2812925444308725    1.8340528455706739
   0.8706283942681431    1.5492903765428689    6.7967836828303962
K Na Ca F
1 1 1 2
direct
  -0.1578319341000916    0.5430902114103354    0.2347119376013649 K
   0.1028389087492153   -0.1050676049114328    0.5588616321687347 Na
   0.1361780657195901    0.1862048667239003   -0.1035790983995771 Ca
   0.1258242548090050    0.2711512200476432    0.5564462060159798 F
   0.0209356937350532   -0.1029396742093111    0.2536473267203173 F
