Cs1 Rb1 Li2 Bi1 Sb1
1.0
   4.7781148772585027   -0.0298537220885525    0.9669845993170976
  -0.0378231786260107    5.9756733846856243    0.5622279135034408
   0.4188377309177582    0.4111005592197121    9.6610407634507460
Cs Rb Li Bi Sb
1 1 2 1 1
direct
   0.8953472583267024    0.5763005001677267    0.2383117828784254 Cs
   0.2568491688037340   -0.0071628407990028    0.6030021683443071 Rb
   0.0068925228283908    0.0829321501059953    0.9875957723793793 Li
   0.5120982192850775    0.3970803635157197    0.9044503428540573 Li
   0.4259760532351022    0.0961383801320111    0.1681440510554883 Bi
   0.5627917757054917   -0.1291495729685626    0.9081689030966852 Sb
