Ba2 Cd1 S1
1.0
   4.3790413086482474   -0.0000000020661262    0.0000000043682630
  -0.0000000020661243    4.3790413098357002    0.0000000082952348
   0.0000000035391315    0.0000000049224981   12.1992630078260600
Ba Cd S
2 1 1
direct
  -0.0000000000694388   -0.0000000000876689    0.5884454727542072 Ba
   0.4999999997207809    0.5000000000898615    0.2783767811241710 Ba
   0.0000000001102902    0.0000000000235835    0.0989332633524975 Cd
   0.0000000000208761    0.0000000000152547    0.3394825023487682 S
