Ba3 Te2 S1
1.0
   5.2254751467258478    0.0000000066861919    0.0000000094905777
   0.0000000149987380    7.5508829423840815   -1.3079265289503264
   0.0000000058343509   -1.3706413029005651    6.9929928719972185
Ba Te S
3 2 1
direct
   0.4999999950314178    0.3625955510464603    0.1890469847311513 Ba
   0.5000000030750633   -0.1887868891858571    0.8263723518262134 Ba
   0.0000000051077478    0.0661805588582659    0.4655921513861709 Ba
   0.4999999986350295    0.3192093501863050    0.6973572698398077 Te
  -0.0000000088764809    0.6220020381424471    0.4719580946930332 Te
   0.0000000043549471    0.0642404088355717    0.0241171499074406 S
