Rb1 Au2 I2
1.0
   6.9780374155799132    0.9438989154638489   -0.3999559634992958
   1.0610413197981763    6.0735723697249888    0.0794370853291332
  -0.4186035061871103    0.1074814486436171    6.0773371974124837
Rb Au I
1 2 2
direct
   0.5484520748745512    0.3445987948021187    0.2754071609585216 Rb
   0.1897664298516292    0.0184355557775462    0.3492093027494325 Au
   0.3317363815901097    0.7631440808943721    0.7415015759671020 Au
   0.0200475829091656    0.3808950351411442    0.0856172758739735 I
  -0.0539964778812063   -0.1157294656222601    0.6269096807373078 I
