Ba2 Cd1 N1
1.0
   4.5363238979944862    0.0000001578327491   -0.0000001943594624
   0.0000001640130057    6.0981800864134108    1.2215844150565331
  -0.0000001749569348    1.1223700984407983    5.3702820696859819
Ba Cd N
2 1 1
direct
  -0.0000000955952211   -0.0312384291741104    0.6491962094968641 Ba
   0.4999999840746936    0.6700073101331009    0.2867047084253735 Ba
   0.0000000371351916    0.3112098589465848    0.0012199586190257 Cd
   0.0000000904730298   -0.0899027412176533    0.2047771324382036 N
