Cs2 Li2 Bi1 Sb1
1.0
   5.1949251805330032    0.0001875467537410   -0.0000412176661683
   0.0001669085119703    5.8830763886192985   -0.4198513464307514
  -0.0000210399662724   -0.4709224427792674    6.3920783458671142
Cs Li Bi Sb
2 2 1 1
direct
  -0.0000008667061875   -0.0242695229228588    0.5689812993105783 Cs
   0.5000104364992619    0.5009032638938625    0.5876069917479629 Cs
   0.0000176620730631    0.3603069664247053    0.0982621072864563 Li
   0.5000055637820657    0.5047890004543152    1.0610908885498491 Li
   0.4999486023170479    0.0166583830703032    0.0900289613424328 Bi
   0.0000186011517728    0.3549089111342441    0.1252217387449475 Sb
