K1 Ca1 Bi1 P1
1.0
   5.5303871352750162   -0.0000000017494760   -0.9021802982061244
  -0.0000000015277723    6.3416326620781005    0.0000000001961730
  -1.1685508269476661   -0.0000000000584090    4.9211390165561788
K Ca Bi P
1 1 1 1
direct
   0.0742409778993509    0.4999999998664334    0.2585032539988188 K
   0.4868930728113224    0.0000000001341146    0.9364093088741635 Ca
  -0.1293187547505722   -0.0000000000431302    0.6031868263329501 Bi
   0.0870397120022815    0.0000000000663574    0.1893946099200038 P
