Rb1 Na1 Sc1 F2
1.0
   3.2934199757225580    0.0500870086397276    0.9118931664115428
   0.1689124329579098    7.5625598541542560    0.2819685902572646
   0.5853570053773511    0.2395698400881171    7.0269770607427358
Rb Na Sc F
1 1 1 2
direct
  -0.1188917986047754    0.5208025206823816    0.2416188060556195 Rb
  -0.0199614061189647    0.0588258011019994   -0.0256399405992725 Na
   0.2589134468511811    0.0173475353984828    0.4716495703559530 Sc
   0.2646987695622117    0.2697509900428768    0.4338691557315833 F
  -0.1563460077935369   -0.1234528600342621    0.3785904065346034 F
