Rb1 Na1 Ca1 F2
1.0
   3.5841278260085017    0.2100964111446330    1.0614892475593065
   0.0737119408324288    6.6539478348120884    1.6839318362809368
   0.7786417312124081    1.3928153432988091    6.7216782460852569
Rb Na Ca F
1 1 1 2
direct
  -0.1992040060207130    0.5359343608520848    0.2578865020211221 Rb
   0.1016384345038708   -0.0720958823970604    0.5362409901129876 Na
   0.1368439788561782    0.1680934963996619   -0.0946899060769228 Ca
   0.1560112651013522    0.2468268780978210    0.5617045831605477 F
   0.0115033300926073   -0.0863198543442729    0.2413068198590645 F
