Li1 Bi1 Te1 Pd1
1.0
   6.0000000000000000    0.0000000000000000    0.0000000000000000
   0.0000000000000000    4.4209137576401343   -0.0000020898981559
   0.0000000000000000   -0.0000014979657648    6.7278491080337792
Li Bi Te Pd
1 1 1 1
direct
   0.0000000000000000   -0.0000005504769818    0.4770303197104461 Li
   0.0000000000000000    0.5000004886459222    0.1800035822277417 Bi
   0.0000000000000000    0.4999999052514001    0.7362403837275563 Te
   0.0000000000000000    0.0000001561283489   -0.0584402779920438 Pd
