Na1 Sc1 Au1 O1
1.0
   5.8371876930983833    0.0000084640913366    0.1167085656494279
   0.0000166567236975    3.4003093624292524    0.0001308637896538
   0.1285262371053785    0.0000772257646753    6.0643236837047443
Na Sc Au O
1 1 1 1
direct
   0.0327283465459824   -0.0000558849189638   -0.0314947314948841 Na
   0.0725610749576373   -0.0000009255017979    0.4988268422951420 Sc
   0.0366973648042468    0.0000447473998926   -0.0615963104233571 Au
   0.0631852124024160    0.5000120639818866    0.3591641977629512 O
