Ba1 Si2 Pt1
1.0
   6.0000000000000000    0.0000000000000000    0.0000000000000000
   0.0000000000000000    4.1971191535618937   -0.0000046506729040
   0.0000000000000000   -0.0000031509000902    8.6126972571803915
Ba Si Pt
1 2 1
direct
   0.0000000000000000   -0.0000003746481473   -0.0299314615505526 Ba
   0.0000000000000000    0.5000001537031900    0.2651649098748663 Si
   0.0000000000000000    0.0000004929517483    0.3773105416239919 Si
   0.0000000000000000   -0.0000002732911181    0.6310950058258370 Pt
