Cs1 Na1 Ag1 As1
1.0
   6.0000000000000000    0.0000000000000000    0.0000000000000000
   0.0000000000000000    6.6087304114426431   -0.3105490556393633
   0.0000000000000000   -0.3327024657379443    6.5385738168589720
Cs Na Ag As
1 1 1 1
direct
   0.0000000000000000    0.1321917207447331    0.4307867203419095 Cs
   0.0000000000000000    0.2115040155178525    0.3147484379027877 Na
   0.0000000000000000    0.0235536764237520    0.0349402682819951 Ag
   0.0000000000000000   -0.0793294143075952    0.3806025754787051 As
