Ba2 Te1 S1
1.0
   6.0000000000000000    0.0000000000000000    0.0000000000000000
   0.0000000000000000    5.8517898808846791   -0.0000212958822667
   0.0000000000000000   -0.0000204994726976    6.0888789684238835
Ba Te S
2 1 1
direct
   0.0000000000000000    0.0000001117018311    0.6567243325900689 Ba
   0.0000000000000000    0.4999785748704774    0.1966273303829463 Ba
   0.0000000000000000    0.4999842427448916    0.1965000067532348 Te
   0.0000000000000000    0.0000370710652435    0.1374813290131996 S
