Ba2 Sr1 Sb1 As1
1.0
   5.9999999999999982    0.0000000000000000    0.0000000000000000
   0.0000000000000000    6.3537553194683341   -0.1072181906773365
   0.0000000000000000   -0.1016996055759760    5.6907762108462236
Ba Sr Sb As
2 1 1 1
direct
   0.0000000000000000    0.5626970904431222   -0.0291534825701340 Ba
   0.0000000000000000    0.4803008334532647    0.3344500703904199 Ba
   0.0000000000000000    0.5613438763442252    0.0477046491109662 Sr
   0.0000000000000000    0.0453016126599847   -0.0157941714697929 Sb
   0.0000000000000000   -0.0047024129143395    0.5109549386727786 As
