Cs1 Na1 Ag1 Bi1 As1
1.0
   5.9999999999999982    0.0000000000000000    0.0000000000000000
   0.0000000000000000    6.5870966794361596   -0.4032320348033678
   0.0000000000000000   -0.4296287229336946    7.0843438650261499
Cs Na Ag Bi As
1 1 1 1 1
direct
   0.0000000000000000    0.0438370516796294    0.9156083235120408 Cs
   0.0000000000000000    0.3870179665522677    0.4832755776971684 Na
   0.0000000000000000   -0.1425040972975015    0.4199919952055586 Ag
   0.0000000000000000   -0.1136806024784340    0.3934427775865126 Bi
   0.0000000000000000    0.5753296767849236    0.1335113344010529 As
