Sr1 Si2 Rh1
1.0
   6.0000000000000000    0.0000000000000000    0.0000000000000000
   0.0000000000000000    4.0221138500756988   -0.0000009437260650
   0.0000000000000000   -0.0000007294886966    8.1481512027789993
Sr Si Rh
1 2 1
direct
   0.0000000000000000   -0.0000000510385215    0.6537223562048341 Sr
   0.0000000000000000    0.5000000295209719    0.1860273309287160 Si
   0.0000000000000000    0.0000000066213897    1.0254460501198126 Si
   0.0000000000000000    0.0000000129955570    0.3263772583737038 Rh
