Rb1 Li1 Mg1 Zn1 Ag1 Te1 S1
1.0
   4.9532147154896320   -0.6501959818965711    0.3616028731313199
  -0.6859683766788119    6.6330314718977519   -0.2658137590917916
   0.3349160493790178   -0.2187850961456833    6.1365251531413723
Rb Li Mg Zn Ag Te S
1 1 1 1 1 1 1
direct
   0.1843923381268284    0.6334562215541542    0.3447105615412420 Rb
   0.5686619133947682    0.2126520696207334    0.1404267940020413 Li
  -0.2363747495791722    0.0133934703759589    0.6536963294014169 Mg
  -0.0031554001441756    0.0108391811984381    0.0417719116895801 Zn
   0.3358159281181893    0.2220567356826033    0.7422061836483235 Ag
  -0.2960387589826567    0.6376658381505071   -0.1339487669467360 Te
   0.1389077107777010    0.1500434839742689    0.3744299962539711 S
