Li2 Sn1 Ir1
1.0
   3.3406007224903087   -0.0069270335275547   -0.0086472468617604
  -0.0069235325647064    3.3406193824302752   -0.0086495409568480
   0.0107922932872776    0.0107890810143347    5.9098171757319520
Li Sn Ir
2 1 1
direct
  -0.1202897802841379   -0.1202898769829712   -0.0008835317425384 Li
   0.3715370629986366    0.3715378981046908    0.2246182237596276 Li
  -0.1255566333484427   -0.1255572552943475    0.5246732653895304 Sn
   0.3743093649990008    0.3743092440004526    0.7515920410053997 Ir
