Cs1 Na1 Ag1 P1
1.0
   6.0000000000000000    0.0000000000000000    0.0000000000000000
   0.0000000000000000    6.8438049434808281    0.8119508643022433
   0.0000000000000000    0.7748129483007031    5.9020247569076449
Cs Na Ag P
1 1 1 1
direct
   0.0000000000000000    0.5817938078602495    0.0716187339616276 Cs
   0.0000000000000000   -0.0186232991121661    0.4767940726526255 Na
   0.0000000000000000    0.3590390638260227    0.6384146279369884 Ag
   0.0000000000000000    0.0848124321889069   -0.0433324412353461 P
