Na1 Sr1 Si1 Rh1
1.0
   6.0000000000000000    0.0000000000000000    0.0000000000000000
   0.0000000000000000    5.9360943165822420   -0.0000405720795588
   0.0000000000000000   -0.0000408072630971    5.7114563217643184
Na Sr Si Rh
1 1 1 1
direct
   0.0000000000000000    0.0000141437542336    0.3217685103364436 Na
   0.0000000000000000    0.5000076941751590    0.1726599241613320 Sr
   0.0000000000000000   -0.0000441749687976    0.9540415919075574 Si
   0.0000000000000000    0.0000223372687933    0.3734219734897670 Rh
