Ba1 Zr1 Se1 O1
1.0
   6.0000000000000000    0.0000000000000000    0.0000000000000000
   0.0000000000000000    5.5470115502547710    0.0309142125441939
   0.0000000000000000    0.0531671341935802    5.9957987817649991
Ba Zr Se O
1 1 1 1
direct
   0.0000000000000000    0.4742724149720720    0.0022076376562651 Ba
   0.0000000000000000   -0.0086403481121682   -0.0313418077905592 Zr
   0.0000000000000000    0.4694135654193820    0.9964950414376571 Se
   0.0000000000000000   -0.0234876352367844    0.2741921353255701 O
