Rb1 Ba1 Al1 S3
1.0
   4.1521054675133389    0.0000000541277000    0.0000192165001267
   0.0000000357582438    5.9823485665070386   -0.0000004202685945
   0.0000090538984476   -0.0000003135898432    8.1243841146643483
Rb Ba Al S
1 1 1 3
direct
  -0.0000004199617598    0.0000000239674458    0.5684140902343332 Rb
   0.5000024132197430    0.4999999302914757    0.1339957309202211 Ba
   0.0000011447171834   -0.0000001199417049    0.0181193908213912 Al
   0.4999994093636769    0.5000001127920261   -0.2370605765648820 S
   0.4999974282872940    0.0000000273644429    0.1808413099451564 S
   0.5000000240868586    0.5000000273262580    0.5070390470696705 S
