Cs1 Rb1 Li3 As1
1.0
   4.9136178057420246    0.0037746191409163    0.0003038079670892
   0.0034198843386753    5.4394929981955968    0.6059753051948387
  -0.0001376532234929    0.6155508171510569    7.2835693615061210
Cs Rb Li As
1 1 3 1
direct
  -0.0000242007140990   -0.0326292816240245    0.5088220236101668 Cs
   0.5002695365226126    0.5886926416379045    0.2246455541896225 Rb
   0.0007067380617412    0.4806998034776879   -0.0645935404824641 Li
   0.4905473898118005    0.1170237739406906    0.9007163083405341 Li
   0.5083314680686843    0.1748052114828426    0.8827868370213985 Li
   0.0001690668205609    0.0069088370890678   -0.0111901899143061 As
