Ba2 Cd1 S1
1.0
   4.1097085891325342   -0.0000011774175560    0.0000003060018433
  -0.0000011799536616    4.1179532015228997   -0.0000016441935085
   0.0000001052187485   -0.0000010452692802    9.0968759658482554
Ba Cd S
2 1 1
direct
  -0.0000000076299994    0.5000002364876815    0.1094815629010120 Ba
   0.5000000089721159    0.4999998359409080    0.5318968626439496 Ba
  -0.0000000045867574   -0.0000001203395235   -0.1992834481628399 Cd
   0.0000000029260892    0.0000000511355091    0.3676190149137122 S
