Cs1 Na1 Ag1 As1
1.0
   4.3107403568598084   -0.0000005959943269    0.0000002314525505
  -0.0000003407110040    6.2637002773891552    0.2349888287282069
   0.0000001745842380    0.1914533009598336    6.7047808833130276
Cs Na Ag As
1 1 1 1
direct
  -0.0000000336668774   -0.0183680241296472    0.8879522027341794 Cs
  -0.0000000756489444    0.3749673368994141    0.3606997110014720 Na
  -0.0000000020760362   -0.1578479555172345    0.4093706005528502 Ag
   0.5000001107037269    0.0512486472394924    0.3656824936308946 As
