Rb1 Na2 Sb1
1.0
   3.9697997118967203   -1.7509960749903746   -0.0883588851142759
  -0.9668377680695484    7.6549768734561683    0.0147479200457655
  -0.0904577848100522    0.0404824870627778    5.1981857724254334
Rb Na Sb
1 2 1
direct
  -0.1449940434403292    0.2024852702534747    0.6971652630202205 Rb
   0.3139880243009898    0.5902161590988764    0.2110666014077559 Na
   0.0950124975654657   -0.0489295699697630    0.1967633116206713 Na
  -0.0727354858331498    0.6968061325427275    0.6982858146959809 Sb
