Cs1 K1 Li1 Cd1 Bi1
1.0
   5.9999999999999982    0.0000000000000000    0.0000000000000000
   0.0000000000000000    5.9893161591371893    0.0001001462062566
   0.0000000000000000    0.0000980951581148    7.1309049845490868
Cs K Li Cd Bi
1 1 1 1 1
direct
   0.0000000000000000    0.4998950042534978    0.1219453513177610 Cs
   0.0000000000000000   -0.0000501107041746    0.5528994822323412 K
   0.0000000000000000    0.0007077103111179    1.0135322515100420 Li
   0.0000000000000000   -0.0004361773579596    0.0530929118695964 Cd
   0.0000000000000000    0.4998835734053594    0.1213250034190680 Bi
