Rb2 Te1 O1
1.0
   6.1809570929094129   -0.1615191250257026    0.1632491481955883
   0.0592004207604685    4.6456444979887195    0.1082271181465014
   0.1247814888523075    0.1406456155625057    7.0575162317993074
Rb Te O
2 1 1
direct
  -0.1142830817161255    0.0198685396818520    0.2703760586774278 Rb
   0.3141556264922901    0.5527605454236981    0.8226718050253814 Rb
   0.3716140658197475    0.5282888721527367    0.3223967540201704 Te
   0.1174913917357051    0.5303640406216199    0.1678293777354863 O
