Rb1 Na1 Cu1 S1
1.0
   5.1798637459819732    0.0000007611788000    0.0180272153503357
   0.0000006836071143    4.1629971371424670    0.0000014339124964
   0.0379727466799919    0.0000013522232579    6.3692383618079731
Rb Na Cu S
1 1 1 1
direct
   0.5030419359196312    0.7499999186878227    0.4410402986617746 Rb
   0.0088550436229918    0.7500002134124786    0.0239578925072461 Na
   0.0218780504748697    0.2499998081665487    0.6399816341109572 Cu
   0.0113779573441808    0.2500000556968725    0.3058401545364051 S
