Cs1 Al1 F2
1.0
   5.5628629557596785    0.0516649544576121   -0.0000000239166540
   0.0773699164562662    6.7854510075242764   -0.0000000420254882
  -0.0000000718723633   -0.0000000458442788    4.0376534008770610
Cs Al F
1 1 2
direct
   0.0584625754600171    0.4955069850292333    0.4999998835948543 Cs
  -0.0317179468907123    0.0036645447515463    0.0000001424004874 Al
   0.1699100758092234    0.2056664067963369    0.0000001979116892 F
   0.0053752938007161   -0.0028079325191264    0.4999997738327525 F
