K2 Li2 Bi1 Sb1
1.0
   4.9097632453035072    0.0000001567015387   -0.0000003902993847
   0.0000001455302209    5.6698787884013626    0.0728982082587488
  -0.0000002420227267    0.2039123053864280    8.4742193002897039
K Li Bi Sb
2 2 1 1
direct
  -0.0000000262717988    0.4698287854690263    0.3215732390104487 K
  -0.0000000039969050   -0.0442468600840695    0.6092359999857544 K
   0.0000000714915608    0.4777799771377334    0.9267608776933516 Li
   0.4999999968075640    0.1864152146126318    0.9792139126950181 Li
  -0.0000000179328954   -0.0363793547489732    0.0478985096076026 Bi
   0.4999999812263696   -0.0145657444314551    0.2939504669796573 Sb
