Ba2 Te1 S1
1.0
   6.0000000000000000    0.0000000000000000    0.0000000000000000
   0.0000000000000000    7.0561654114828531   -0.0000000023082078
   0.0000000000000000   -0.0000000027141052    4.9508391956443063
Ba Te S
2 1 1
direct
   0.0000000000000000   -0.0000000003757414    0.6650903856123820 Ba
   0.0000000000000000    0.4999999998460126    0.3510785967576433 Ba
   0.0000000000000000    0.5000000000477823    0.5391793454105218 Te
   0.0000000000000000    0.5000000003637539   -0.0723323275054703 S
