K1 Li4 Sb1
1.0
   5.9999999999999991    0.0000000000000000    0.0000000000000000
   0.0000000000000000    5.9452941726779267    0.0063140239465158
   0.0000000000000000    0.0050368838069827    6.4517629356566610
K Li Sb
1 4 1
direct
   0.0000000000000000   -0.0352457306997794    0.5808059738518768 K
   0.0000000000000000   -0.0268362390643027    0.1133275510713380 Li
   0.0000000000000000    0.0005015206552558    0.1473742420332643 Li
   0.0000000000000000    0.3407874032223103    0.9358613926952730 Li
   0.0000000000000000    0.3452416596012467    0.9845743056727924 Li
   0.0000000000000000    0.0094373858133149    0.0845025325248567 Sb
