Cs1 Li1 Bi2 As1
1.0
   5.9999999999999982    0.0000000000000000    0.0000000000000000
   0.0000000000000000    6.0386640987400115   -0.0260121038786483
   0.0000000000000000   -0.0261717277933497    6.0443430596014931
Cs Li Bi As
1 1 2 1
direct
   0.0000000000000000    0.0008333931850184    0.6879219635261787 Cs
   0.0000000000000000    0.2017734841541773    0.0542454495035464 Li
   0.0000000000000000    0.5027634714734495    0.3244291109992918 Bi
   0.0000000000000000   -0.0200493464387423    0.2942518738381359 Bi
   0.0000000000000000   -0.0005040024300575    0.6398646096513654 As
