Cs1 Li1 Bi2 As1
1.0
   4.9117909329652392   -0.0000007460125210    0.0000017443223673
  -0.0000005976697483    7.6110230864263970    0.8934241391850446
   0.0000014173551604    0.6776214637343176    6.1279681941513058
Cs Li Bi As
1 1 2 1
direct
  -0.0000000270575697    0.0031770348841354    0.4494027599699915 Cs
  -0.0000002549393402    0.3978761224271558   -0.0764075197914884 Li
   0.0000002794253923    0.5038928022028919    0.4372576921019301 Bi
   0.5000004050284910    0.5383895042404858    0.0920046989296767 Bi
  -0.0000004041247869   -0.2628334586368758    1.0202993894015593 As
