Cs1 Rb1 Sc1 S3
1.0
   5.6867843487075422    0.0000000006692045   -0.0000000015924960
   0.0000000006691997    5.6867843484815790   -0.0000000018052814
  -0.0000000025554986   -0.0000000029425703    8.1136920514819604
Cs Rb Sc S
1 1 1 3
direct
   0.0000000000155696    0.0000000000987107    0.2766855777015134 Cs
   0.4999999999398350    0.4999999999356017    0.5859334122067011 Rb
   0.4999999998962171    0.4999999999844316    0.9401744550440136 Sc
   0.4999999997610315    0.4999999992822918    0.2096261953392776 S
  -0.0000000002132546   -0.0000000001596350    0.7814959214139673 S
   0.5000000004529550    0.5000000008520273    0.2258964347318904 S
