Ba1 Sr1 As1 O1
1.0
   5.8632710491855144    0.0059222817067714    0.0028447221333330
   0.0069041577205162    5.0774105252783377   -0.0124104003746534
   0.0068876655064319   -0.0113523689408807    5.1496276857334866
Ba Sr As O
1 1 1 1
direct
   0.3327088033379319    0.7329850654729241    0.7628036862218505 Ba
   0.1981834088166488    0.2476715334616237    0.2566509487843776 Sr
   0.3297109763768562    0.7575793577013421    0.7705690364949510 As
   0.3538638040374932    0.2617640388832656    0.6717503273122249 O
