Ba1 Sr1 Te1 O1
1.0
   6.1231790211704542    0.0415053150396149    0.0231140240196323
   0.0452444810519780    5.0046726909908905    0.2642932254369873
   0.0107439996622465    0.0356049861751662    9.3735355757148646
Ba Sr Te O
1 1 1 1
direct
   0.0065040604928568    0.1752317730799625   -0.2102103373888665 Ba
   0.0028027157499239    0.2186696863131579    0.3635926786580881 Sr
  -0.1650121388988559   -0.2969096886398255    0.5611475050781725 Te
   0.1783593615357439    0.1684492365521027    0.5689881627965605 O
