Cs1 Rb1 Li2 As1
1.0
   4.8270434674778926   -0.0000001781179317    0.0000012499956095
   0.0000000596908153    6.6493656459929680   -0.8465912919204083
   0.0000008052434574   -0.8244753047188368    6.4406079075070766
Cs Rb Li As
1 1 2 1
direct
  -0.0000001716757679   -0.0591670737544800    0.3259000726542832 Cs
   0.5000002803951809    0.5583538971393295    0.7283321250328403 Rb
   0.0000001697874253    0.1728605777567043    0.8861199396923182 Li
   0.4999998237630219    0.3051087455750859    0.1591239747679881 Li
   0.4999998982141001    0.0712488447053683    0.8189698818259257 As
