Ti1 Fe1 P1 N1
1.0
   6.0000000000000000    0.0000000000000000    0.0000000000000000
   0.0000000000000000    5.0130944869654757    0.1898632535042631
   0.0000000000000000    0.1039629251047642    3.9493195949477551
Ti Fe P N
1 1 1 1
direct
   0.0000000000000000    0.3462146094403110    0.8046986355633503 Ti
   0.0000000000000000   -0.0488956500450035    0.3257595984372257 Fe
   0.0000000000000000   -0.1796378135738194   -0.1650973064703232 P
   0.0000000000000000    0.2962848620617551    0.3178990701302880 N
