Rb1 Li1 Mo1 O1
1.0
   3.5330537069716539    1.1287577671926288   -0.0095875558354771
   0.9467471966369749    7.5462038305473316    0.4191477776987423
  -0.0896069172509279    0.7029708740677452    4.7489273866192443
Rb Li Mo O
1 1 1 1
direct
   0.0002129006927886   -0.1361528578263609    0.0480472696951665 Rb
  -0.2334901067319683    0.3555512886840081   -0.0384105207311684 Li
   0.2901767045388731    0.3141286021159237    0.4811841370971897 Mo
   0.2431005139402426    0.1637419936594800    0.8412211085681119 O
