Sr1 Si2 Rh1
1.0
   6.0000000000000000    0.0000000000000000    0.0000000000000000
   0.0000000000000000    4.0415813278907500   -0.0000003173729156
   0.0000000000000000   -0.0000002163845847    8.1221065848948495
Sr Si Rh
1 2 1
direct
   0.0000000000000000    0.0000000001832502    0.6553710013726687 Sr
   0.0000000000000000    0.5000000131566795    0.1928355321901718 Si
   0.0000000000000000   -0.0000000157557653    0.0277928774602531 Si
   0.0000000000000000    0.0000000014743690    0.3276365949981603 Rh
