Rb2 In2 Cl1
1.0
   6.0855320583963115    0.0249354479811890   -0.0053441247402310
   0.0249354479678210    6.0855320618690030    0.0053441129137158
  -0.0051361986676554    0.0051361870450825    6.6543653399040519
Rb In Cl
2 2 1
direct
  -0.0022635984961444    0.0022635979095216    0.2814123390754413 Rb
   0.3345624485188280    0.6654375476030457    0.8824526863743881 Rb
   0.3345500363779838    0.6654499623086394    0.2189308653345496 In
   0.3316222924960973    0.6683777132255432    0.5112302512680149 In
   0.3348608211732415    0.6651391789167581    0.0961428570012708 Cl
