Na2 B1 O1
1.0
   3.3953379320699808    0.3195969964605598   -0.4365879047294939
   0.2879843004318056    5.1694218136620798   -0.0736492183012839
  -0.3317555335060730   -0.0852290381554538    5.5432916079829919
Na B O
2 1 1
direct
   0.0155285860828655   -0.3186857339214488    0.4783112607126853 Na
  -0.1211982852460646    0.2116955557289175   -0.0172770144569086 Na
   0.2241280003928343    0.6468341240187567   -0.0206129786068240 B
   0.2148746966566098    0.8267550549789132    0.1465697289934625 O
