Ba1 Si2 O1
1.0
   6.0000000000000000    0.0000000000000000    0.0000000000000000
   0.0000000000000000    4.2007260311063312    0.0070611696277137
   0.0000000000000000    0.0043695067731497    7.5336756777427443
Ba Si O
1 2 1
direct
   0.0000000000000000    0.0017424453174716    0.6697632632305629 Ba
   0.0000000000000000    0.5010390763641203    0.0060907517631309 Si
   0.0000000000000000    0.0005046436342609    1.1397964396318361 Si
   0.0000000000000000   -0.0032861675546759    0.3592655584209560 O
