Cs1 Al1 F2
1.0
   5.5309589874926619    0.0192009737531692   -0.0000639390753623
   0.0412957589537833    6.7929613564902205   -0.0000316734841414
  -0.0000855594305624   -0.0000381524202710    4.0472220197738995
Cs Al F
1 1 2
direct
   0.0495407073881364    0.4978301964898919    0.4999909066929585 Cs
  -0.0266783231082421    0.0055693221926237    0.0000163219712356 Al
   0.1709886091598805    0.2115775929325850   -0.0000138330022771 F
   0.0081490049597481   -0.0001321091414101    0.5000066020288031 F
