Na1 Sb1 P2
1.0
   5.1072746826017230    0.4848152144164547    0.3276538174930897
   0.4358444618192793    4.7816176103216907   -0.2875549804726962
   0.3329654822710700   -0.2814183042707483    4.6512610843502129
Na Sb P
1 1 2
direct
   0.4926199819388501    0.6242670530601658    0.5914557467476670 Na
  -0.0763589989623484   -0.1132566431054115    0.0903876475897456 Sb
   0.1772332021116076    0.1697246719444206    0.3872114469570827 P
   0.4854628121224551    0.1884749042295790    0.0463461494479106 P
