Cs2 Na2 Sb1 As1
1.0
   6.0313029882580462   -0.0000000067578047    0.0000000027843695
  -0.0000000067836964    6.0597548460458777    0.1462653626103157
   0.0000000027788128    0.1470266394733111    5.9995690079115827
Cs Na Sb As
2 2 1 1
direct
  -0.0000000000930079   -0.0201498209137776    0.2915211956061461 Cs
   0.4999999985556710   -0.0174947655110663    0.5942217781454241 Cs
   0.0000000010491090    0.2235971034194669    0.8983178860712753 Na
   0.5000000000257081    0.2048223853733918   -0.0112145638682494 Na
   0.4999999999383321    0.5470103864910970    0.2702282855111063 Sb
   0.0000000003696771    0.0142867098980261    0.3169664167286751 As
