Rb1 Zr1 Ag1 Se1 S2
1.0
   4.8841716617343200   -0.0000015127214070    0.2704685388164903
  -0.0000009179429759    4.9454201236098969   -0.0000077954279526
   0.2349129643711846   -0.0000038787259631    7.4889742300241515
Rb Zr Ag Se S
1 1 1 1 2
direct
   0.5513424837612535    0.2500014908192644    0.7786791592395149 Rb
   0.1168125661744575    0.7499998837970632    0.3880920183733647 Zr
   0.0053514134610001    0.2499988787896499    0.1433849498459670 Ag
   0.1154475929398072    0.7499990400915308    0.0419349386815754 Se
   0.0902609909800354    0.2500003189631371    0.4739700969376751 S
   0.6028779569586413    0.7500003899056175    0.4712958365444811 S
