K2 Sc2 S2 O2
1.0
   5.5035008282820597    0.0673520051782969    0.0344827050727065
   0.0667565955614682    5.6184810830821688   -0.0236293113345469
   0.0354389132611197   -0.0241538062696965    5.7629559360186242
K Sc S O
2 2 2 2
direct
  -0.0491108770935373   -0.0026972069366113    0.7424901856559718 K
   0.2868046478233526    0.6948040908260908    0.2745539876287488 K
   0.7571620542949581    0.2835674703598960    0.2414944305296822 Sc
   0.2980573436490281    0.6884645052291346    0.2367162361213621 Sc
   0.3814181145396026    0.6713174442063577    0.8249917795572925 S
   0.7449156921068202    0.2993636984558070    0.2387545593463122 S
   0.0010589973095025   -0.0280079601052115    0.2953311127672401 O
  -0.0869729740406175    0.3872389548744792    0.9940306919414045 O
