Sr1 Ga1 N2
1.0
   6.0000000000000000    0.0000000000000000    0.0000000000000000
   0.0000000000000000    5.2844101297094674   -0.0637473891678745
   0.0000000000000000   -0.0710063438634714    4.9645218368287534
Sr Ga N
1 1 2
direct
   0.0000000000000000    0.0801591837358379    0.3186327597654883 Sr
   0.0000000000000000    0.5885243085207904    0.7673650736928103 Ga
   0.0000000000000000    0.2089337210063149    0.8348713523574366 N
   0.0000000000000000   -0.0323872147359981   -0.1708691902727171 N
