Sr1 Si2 Rh1
1.0
   6.0000000000000000    0.0000000000000000    0.0000000000000000
   0.0000000000000000    5.6900399667035444   -0.0080605491150973
   0.0000000000000000   -0.0090948102428690    4.9381665546108398
Sr Si Rh
1 2 1
direct
   0.0000000000000000    0.5026001927729458    0.1627551978557355 Sr
   0.0000000000000000    0.0103501020150549    0.3645042790366269 Si
   0.0000000000000000    0.0018618420914581   -0.1268365759166994 Si
   0.0000000000000000   -0.0148121360288037    0.3099451005291736 Rh
