Rb1 Na1 Ag1 Bi1 As1
1.0
   5.4175741040425702   -0.0000000024610176    0.0000000252780162
   0.0000000011904951    8.6629475703466987    0.1785243019332848
   0.0000000243683716    0.1662088830526584    7.6168201879288819
Rb Na Ag Bi As
1 1 1 1 1
direct
   0.0000000005755199   -0.0817710548250852    0.1324350477238276 Rb
   0.0000000016572520    0.2618163439264315    0.6408668402023661 Na
   0.0000000004938763    0.5507995897435036    0.4275407563681147 Ag
  -0.0000000036860296   -0.2215464000280583    0.1412945703052550 Bi
   0.5000000014396571    0.1812405196853843    0.6154137902549356 As
