Cs1 K1 Mo1 F2
1.0
   5.7873229260603392    0.3765971605562815    0.3696491372142492
   0.3146128148538485    8.5026984484297952   -1.0760580532516735
   0.2633716047528508   -0.7798352249906135    7.8329111544396657
Cs K Mo F
1 1 1 2
direct
  -0.0373871233849481    0.4670093987889909    0.3751193296600460 Cs
   0.0661054763348126   -0.0818085980717255   -0.0870143708972149 K
   0.0640808477327678   -0.0478760539424955    0.4087959668190226 Mo
   0.1045176228938169    0.7989704784467756    0.5726538882322016 F
   0.0245901734193774    0.1011007788579382    0.2397781955302090 F
