Rb2 Te1 O1
1.0
   6.0000000000000000    0.0000000000000000    0.0000000000000000
   0.0000000000000000    7.2543880901297193    0.3537078637174377
   0.0000000000000000    0.2416334492523395    7.1860387983031648
Rb Te O
2 1 1
direct
   0.0000000000000000    0.6255505728234131   -0.0008211593028392 Rb
   0.0000000000000000    0.1211141412651547    0.4785308649154991 Rb
   0.0000000000000000    0.6264374395556007    0.5025148832147410 Te
   0.0000000000000000   -0.1830491488895592    0.2975894070519999 O
