Cs1 Na1 Ca1 F1
1.0
   6.0000000000000000    0.0000000000000000    0.0000000000000000
   0.0000000000000000    7.0661079768057951    0.0000000007393648
   0.0000000000000000    0.0000000007384327    8.3003397134923276
Cs Na Ca F
1 1 1 1
direct
   0.0000000000000000    0.5000000004638041    0.2713188828102913 Cs
   0.0000000000000000    0.0000000004798461    0.5023629677387155 Na
   0.0000000000000000    0.0000000005597892   -0.0126341598989225 Ca
   0.0000000000000000   -0.0000000009041524    0.2278733209296267 F
