Na2 Ag1 Bi2 Te1
1.0
   5.7207283345834545   -0.0000000004104042   -0.0000715090097505
  -0.0000000004279558    5.8290573090745532   -0.0000000067918140
  -0.0000075286824459   -0.0000000071144582    6.2693907604360746
Na Ag Bi Te
2 1 2 1
direct
  -0.0007456279615125    0.5000000001125811   -0.0611693447519061 Na
   0.0134550723757562    0.5000000002629172    0.3590888132730057 Na
  -0.0142447014776307    0.4999999996628559    0.3989560311279919 Ag
  -0.0008029160646817    0.0000000000079684    0.1814562440066260 Bi
   0.4992872751791992    0.5000000057106667    0.2086921608737072 Bi
   0.5030508986125781    0.4999999942591605    0.2557300945556507 Te
