Cs1 Na1 Sb1 F1
1.0
   3.2924848368912092    0.0522195537781083   -0.3301570901682030
  -0.0409044474799799    6.2037163142808565   -0.1539014807403149
  -0.3190094812760522   -0.1475824072176805    7.3502946499530886
Cs Na Sb F
1 1 1 1
direct
   0.0518971536870926   -0.0652479020847674    0.9820217372987007 Cs
  -0.1606930906832407    0.3772273455419808    0.3716979386971235 Na
   0.0506249996856370   -0.1219458925222606    0.4802570800466854 Sb
   0.2897939515979199    0.2956264530007657    0.1910112352094264 F
