Ba2 Cd1 O1
1.0
   4.4162508682435142    0.0162600315257809   -0.0187805363405223
   0.0146195533258446    4.6382246388867268    0.2812455828355849
   0.0356982861410041    0.2174368673618138    7.5577362966156194
Ba Cd O
2 1 1
direct
   0.0291886706569397   -0.1093775035264499    0.5752645924103453 Ba
   0.5421953488954496    0.4387684230191571    0.2208647561417931 Ba
   0.0403760281658446   -0.0371403215175950    0.0211069445833400 Cd
   0.0451569484165381    0.4116104057424425    0.4205006859832955 O
