Ba2 Te2 Se1 S1
1.0
   5.1280312579458380   -0.3964464227794886   -0.4396447427075363
  -0.4452029163852090    5.0311852968502775   -0.0851408356389984
  -0.2535506650851702    0.0598927159742573    9.6214876518871684
Ba Te Se S
2 2 1 1
direct
   0.1876266092234729    0.0296131444578653    0.0491526158004111 Ba
  -0.1557496730489094   -0.0274720178870738    0.5404513312696413 Ba
   0.0941754343350165    0.5168305890137054    0.3019990089978511 Te
   0.0143590027439191    0.5003347683414116    0.8126927916596515 Te
   0.3140549141680156    0.5344844561696123    0.6004353227453441 Se
  -0.2630602753165425    0.1376150458964065    0.2243719186666171 S
