Cs1 Rb1 Sc1 F2
1.0
   5.6024298758251074    0.2394513630316604    0.0754579792083736
   0.2584321522673343    5.5579146355305813   -0.0295498264351738
   0.0002888230523981   -0.0185274366553424    9.1843596628092818
Cs Rb Sc F
1 1 1 2
direct
  -0.0138705244652919    0.1109112458852878   -0.0782483133601638 Cs
   0.4739735781093223    0.6523165104755512    0.2662884859574950 Rb
  -0.0037851521322542    0.1215539295722927    0.3907641302584554 Sc
   0.1878234759329118    0.2616378077520249    0.2502481754111727 F
  -0.0693633785891350   -0.1489094955323496    0.2763325013589550 F
