Ba2 Te1 O1
1.0
   5.6497780062761889   -1.0082627018322325   -0.0069447647615020
  -1.0082627751997624    5.6497812556644345    0.0069448200292634
   0.0044795651370897   -0.0044795121695409    4.7266021183016615
Ba Te O
2 1 1
direct
  -0.0419185623803962    0.0419186238624016    0.7548837417413562 Ba
   0.3121535280134123    0.6878465555400233    0.2560020423617898 Ba
   0.6726880921325931    0.3273118914599896    0.2580873072983626 Te
   0.0570769486956679   -0.0570770649742076    0.2462259087098794 O
