Sr1 Be1 Ag1 P2 H3
1.0
   5.8639338024914913   -0.3227697058532455    0.0310093620227204
  -0.3078641975345285    6.1478793939438097   -0.5452636484590572
   0.0811421273321936   -0.6233731825699950    4.3359553104640458
Sr Be Ag P H
1 1 1 2 3
direct
   0.1731386062174709    0.5336255753896624    0.7698398889149032 Sr
  -0.0443899426660535    0.0582295747254961    0.8696926417184777 Be
   0.3569830154217097    0.1539417532046348    0.1359901728155720 Ag
  -0.0932749054265464   -0.1831626205717147    0.4145689708892963 P
   0.2467225854088042   -0.0203248872953211    0.5775815187052207 P
   0.3304883480944846    0.4494003313003874    0.2215046147626095 H
  -0.1356697796861341   -0.0372265403375153    0.2062325139870506 H
  -0.1313019064526773    0.2588887740166617    0.9034046829428803 H
