Cs1 Na1 Sc1 F2
1.0
   3.6428227359000291   -0.1020215509347187   -0.5664390645279078
   0.0354468781318308    8.1970128829276980   -0.2627110964056248
  -0.4082959029705850   -0.2530948492174233    6.8129303169902320
Cs Na Sc F
1 1 1 2
direct
  -0.1044536715931495    0.5258136821665942    0.2175165894238117 Cs
  -0.0347342372832298    0.0594440474887496    0.5090997286172873 Na
   0.1343327605491089    0.0192944624596878    0.0088571622293006 Sc
   0.2708940771002055    0.2462359215830206    0.0577600401996047 F
  -0.0376259231304883   -0.1075151038393065    0.2068494807417866 F
