Ag1 B1 Pt1 O1
1.0
   4.2800994828196490   -0.0742438044224541    0.2384869007611146
  -0.0465009715323201    4.0003211379313868    0.5233686257412784
   0.3121283692993229    0.6006273368543222    4.5710802715292136
Ag B Pt O
1 1 1 1
direct
  -0.0934683036651846    0.5213463562350534    0.1348322291641544 Ag
   0.1736644237068867    0.0260915056556952    0.0788445798175048 B
   0.1424599227000188   -0.0591782087499509    0.5076320926945921 Pt
   0.3616169614870686    0.0969963393734719    0.8213760990627618 O
