Cs1 Na1 Sc1 F2
1.0
   3.6848981896810891    0.1614095501589485   -0.5213038055454122
   0.0301006465685932    8.2158017157395289   -0.1369412819055696
  -0.4045895658743638   -0.1277816617340236    6.9723342702907001
Cs Na Sc F
1 1 1 2
direct
  -0.1978246128262245    0.5279726273578422    0.2607967694660662 Cs
   0.0268362439781671    0.0287969946602690    0.5847975260494875 Na
   0.2837700830901040    0.0245645042771227    0.0999587707742996 Sc
   0.2966277995740499    0.2511463833185565    0.1515679456151357 F
  -0.1809965133596566   -0.0892065162436936    0.1381359915525943 F
