Ba2 Te1 S3
1.0
   5.9884572852815277   -0.0000000001771057    0.0001192578287534
  -0.0000000001771926    5.9883112194595283    0.0000000005115346
   0.0001179032141162    0.0000000005667930    6.0682533619938273
Ba Te S
2 1 3
direct
   0.0047679345998441    0.4999999999459021    0.2170547889943545 Ba
  -0.0000705503259679    0.5000000008890270    0.2680579302844427 Ba
  -0.0037896950602844    0.4999999991688949    0.2791724218293851 Te
  -0.0000011029207424    0.0000000000068415    0.0012558634659642 S
  -0.0009586622127434    0.4999999999901377   -0.0459266911374606 S
   0.5000520757904539    0.4999999999997745    0.4986276864348946 S
