Rb1 Y1 In2 Cl1 O1
1.0
   5.5650268873458568   -0.1806920568397830    0.1185525485014560
  -0.1767104011818768    5.3331491391289871   -0.1116051621493627
   0.1152355253985941   -0.1299399040707092    6.5321489012263836
Rb Y In Cl O
1 1 2 1 1
direct
   0.3905423601958468    0.6261315650072942    0.7688422066575615 Rb
   0.0650754120058076    0.0941505418687373    0.4080265790892916 Y
   0.2973137100676888    0.6640590996546475    0.2696846949711479 In
   0.3717098562945363    0.6171056330570559    0.7388121396818225 In
   0.2945353233802775    0.6776900401004304    0.2777295693575604 Cl
   0.2768573384680127    0.1751211195092638    0.6515438086191577 O
