Rb1 Te2 S1
1.0
   6.0000000000000000    0.0000000000000000    0.0000000000000000
   0.0000000000000000    5.9027606776651140    0.0000000020267432
   0.0000000000000000    0.0000000020224301    6.1904871092004905
Rb Te S
1 2 1
direct
   0.0000000000000000    0.0000000000115346    0.0295140268347638 Rb
   0.0000000000000000    0.5000000000386398    0.1659223661987781 Te
   0.0000000000000000    0.5000000000162537    0.5855865771216402 Te
   0.0000000000000000   -0.0000000000242667    0.0774250291315504 S
