Sr1 Se5
1.0
   6.0223160580328301    0.0000000105180980    0.0338633564435452
   0.0000000108804319    6.4619057988152750    0.0000000021005769
   0.0340634007905601    0.0000000020996317    5.9345616179974749
Sr Se
1 5
direct
   0.0655715318376033    0.2500000048217824    0.7818797767735709 Sr
   0.2101984915164039    0.7500000055790187    0.3458182596194986 Se
   0.0549405529040572    0.7499999872554496    0.1186449010849892 Se
   0.1468255925724731    0.7499999998266381    0.3619504237285779 Se
   0.2152202790644840    0.7499999988367315    1.0775090928577695 Se
   0.1535895541940469    0.2500000037462167    0.2885975481435666 Se
