K2 Mg1 Bi1 As1
1.0
   4.4062278740788674    0.0000003538232226    0.0000042009979163
   0.0000003732471534    4.3745426621969070    0.0000004980114290
   0.0000009577934046    0.0000001212968737    9.1724472214963431
K Mg Bi As
2 1 1 1
direct
  -0.0000003775842490   -0.0000000324540349    0.3259945789832597 K
   0.5000000496959017    0.5000010454370465    0.6488220060975313 K
  -0.0000005117336348    0.4999976725575291    0.9525704843897603 Mg
   0.5000005097997292    0.5000003443873526    0.1531729164294253 Bi
   0.5000003347664047    0.0000009737350002    0.9277240123609750 As
