Cs1 Na1 Ca1 F2
1.0
   3.7099361738876664   -0.1293053291832069    0.8456716048852749
  -0.1343009925500117    7.4416528013099468    1.6322829524954554
   0.6690128779982796    1.2994788346475219    6.7029023343450476
Cs Na Ca F
1 1 1 2
direct
  -0.1597488901034107    0.5298080694654147    0.2842567021700739 Cs
   0.1466370457610708   -0.0469708984184588    0.5008197090340177 Na
   0.1047643836482058    0.1588069333062924   -0.0873924600834872 Ca
   0.1615383156020780    0.2198121679788211    0.5746740438270653 F
  -0.0313968543688367   -0.0690172817214956    0.2277309901181755 F
