Ba2 Te1 S1
1.0
   4.3269738905873236    0.0000000014485622   -0.0000000059014086
   0.0000000020035994    6.4604252706987682    0.0000000044982703
  -0.0000000057338980    0.0000000036527571    5.9560332459679621
Ba Te S
2 1 1
direct
   0.0000000000825500    0.0000000015136569    0.6213141094756724 Ba
   0.5000000007829488    0.4999999996208386    0.1079226001059138 Ba
   0.0000000000416230    0.5000000000355258    0.5967686448125052 Te
  -0.0000000002994546    0.0000000001710820    0.1191366387444067 S
