Rb2 Te1 S1
1.0
   5.9616853207957465   -0.5042561349233290   -0.1478460425951129
  -0.5844463324406067    5.7491421299043095    0.7504147394033789
  -0.1254905647330989    0.6950594462186094    6.5768876592307812
Rb Te S
2 1 1
direct
  -0.0346417737542487    0.0521292984826523   -0.0852162538345903 Rb
   0.4720082177539009    0.7361046684862667    0.4438788087493267 Rb
  -0.0948464486294970    0.3831069378804104    0.3228166671416908 Te
   0.0208700052273327   -0.0045409101612416    0.4358357727016589 S
