Ba3 Te2 S1
1.0
   5.9970634201992867   -0.0000000000149438    0.0000000001525416
  -0.0000000000183259    5.9567316514408422    0.0000686658183185
   0.0000000001508915    0.0000676838211940    6.0344419601751635
Ba Te S
3 2 1
direct
  -0.0000000026273079    0.5526179244746020    0.2503068297378642 Ba
   0.0000000351974453    0.5286681490881009    0.2469185987734476 Ba
  -0.0000000000088035    0.4998571486818409    0.7500547295731594 Ba
   0.5000000001568129    0.2449364777971563    0.7505100095405456 Te
  -0.0000000329641219    0.5137530718331093    0.2527762282777778 Te
   0.0000000002574283    0.0009722267433747    0.2554926045070907 S
