Cs1 Na1 Bi1 Sb1
1.0
   6.0000000000000000    0.0000000000000000    0.0000000000000000
   0.0000000000000000    8.3099953265440050   -0.5665033202259276
   0.0000000000000000   -0.4083952185256722    6.2518243327795728
Cs Na Bi Sb
1 1 1 1
direct
   0.0000000000000000    0.0317011952943405    0.9976734264082394 Cs
   0.0000000000000000    0.4161285412954315    0.5756536579297586 Na
   0.0000000000000000    0.5462867066432281    0.0889574639647813 Bi
   0.0000000000000000   -0.2441164455290377    0.4542394528302042 Sb
