Ba1 Na1 Ag1 P1
1.0
   4.3091023147904401   -0.0000002149439686   -0.0000000641904032
  -0.0000001497928929    6.7682400623042653    0.4239337665584857
  -0.0000000527760538    0.4510874156933960    4.6463189797137137
Ba Na Ag P
1 1 1 1
direct
   0.5000000102641396    0.6440064760553258    0.0351083158982948 Ba
   0.5000000068723418    0.0712362576928951    0.4980482664188612 Na
  -0.0000000151187750    0.3966218143332961    0.6029976042317248 Ag
  -0.0000000033583650   -0.2412295444558440    0.5005688052542966 P
