Cs1 Na1 Sc1 F2
1.0
   3.6057559271520025    0.0985133776728169   -0.2624761528239408
   0.0838470605264820    7.9403152469121316   -1.5351492147389922
  -0.2581193135569155   -1.3226789740159006    6.2428063294178751
Cs Na Sc F
1 1 1 2
direct
  -0.0172750125294391    0.5440558507906792    0.2390520781900381 Cs
  -0.0753338307395392   -0.0675256360597500   -0.0463499544076101 Na
   0.1650503279195462    0.1495416869058368    0.5828491114833714 Sc
   0.1535354148305804    0.1762073470976149   -0.0957483899234430 F
   0.0024360907045114   -0.0590052554946228    0.3202861607674436 F
