Sr1 Si2 Pt1
1.0
   6.0000000000000000    0.0000000000000000    0.0000000000000000
   0.0000000000000000    4.1200575308526570   -0.0000000483011947
   0.0000000000000000   -0.0000000253100967    8.6098999658223203
Sr Si Pt
1 2 1
direct
   0.0000000000000000   -0.0000000000910763    0.6215395003697269 Sr
   0.0000000000000000    0.4999999896261813    0.3485598773411006 Si
   0.0000000000000000    0.0000000012180009    0.9776571861456885 Si
   0.0000000000000000    0.0000000097717936    0.2455684466033759 Pt
