Na1 Sr1 Te1 Rh1
1.0
   6.0000000000000000    0.0000000000000000    0.0000000000000000
   0.0000000000000000    4.8855131154262228   -0.0000000041118722
   0.0000000000000000   -0.0000000030820971    9.6462340649234299
Na Sr Te Rh
1 1 1 1
direct
   0.0000000000000000   -0.0000000003207712    0.5299110144791005 Na
   0.0000000000000000   -0.0000000004593683    0.9752102069175903 Sr
   0.0000000000000000    0.5000000016578935    0.2098622133239297 Te
   0.0000000000000000   -0.0000000003690851    0.2577755605670757 Rh
