Cs1 Li1 Cd1 Bi2 Te1
1.0
   5.6352555891246237   -0.0000000244121667    0.0000001717489490
  -0.0000000263489013    5.9645493136708128    0.0381955192840297
   0.0000001613951550    0.0395904019491479    6.1706751154749497
Cs Li Cd Bi Te
1 1 1 2 1
direct
   0.0000000289195018    0.5401032451931915    0.0701597798662567 Cs
  -0.0000000003367478    0.1517719557417883    0.7881277118121679 Li
  -0.0000000005104154   -0.0025615694154275    0.2952745896542579 Cd
  -0.0000000010052767    0.0077053912719715    0.3434704117016571 Bi
  -0.0000000037005636    0.5226060492316659    0.2644644432676086 Bi
   0.4999999768328251    0.4603809283917695    0.3148250674993352 Te
