Na1 Sr1 Bi1 O1
1.0
   6.0000000000000000    0.0000000000000000    0.0000000000000000
   0.0000000000000000    6.4430355725481689    0.8639844816648714
   0.0000000000000000    0.5942658701856648    6.8821670433829754
Na Sr Bi O
1 1 1 1
direct
   0.0000000000000000   -0.2082023244648433    0.3565870617875903 Na
   0.0000000000000000    0.2236308634551494    0.7812969924393772 Sr
   0.0000000000000000    0.3213581709741436    0.2628576019857257 Bi
   0.0000000000000000    0.0629402903732183    0.0992583362375091 O
