Sr1 Si2 Rh1
1.0
   6.0000000000000000    0.0000000000000000    0.0000000000000000
   0.0000000000000000    4.5487847554550411    0.1144340290309864
   0.0000000000000000    0.1053923158059572    5.4151812505637613
Sr Si Rh
1 2 1
direct
   0.0000000000000000    0.4948651438451979    0.1666462738319183 Sr
   0.0000000000000000    0.4348028076180626    0.2102860106392210 Si
   0.0000000000000000    0.0453384776405984    0.3412393259678352 Si
   0.0000000000000000    0.0249935747099522    0.2831823914132346 Rh
