Rb2 Sc1 S2
1.0
   6.0788786056875876    0.0573425921132923    0.0278582026981100
   0.0573751325331246    6.0002997370952293    0.0345330981909055
   0.0278733433814032    0.0345417514215592    6.0053144166997408
Rb Sc S
2 1 2
direct
  -0.0115188292717450    0.4939172113239129    0.4095322881487011 Rb
   0.3554275900673870    0.6802854294514569    0.5074560682801490 Rb
   0.6593463154983109    0.3320235962814545    0.2131100417082976 Sc
   0.6594673372928544    0.3316872019248622    0.2125312440898856 S
   0.3372775862865383    0.6620865613733010    0.0030123562747037 S
