Cs2 Na1 Li1 Bi1 Sb1
1.0
   5.9446280243917897    0.0000000050274380    0.0000000045924769
   0.0000000055636815    6.5601169469678169    0.0048007547748433
   0.0000000046381185    0.0018818216336793    6.0323143300729498
Cs Na Li Bi Sb
2 1 1 1 1
direct
   0.0000000016915643    0.0226692603182673    0.3815406735615600 Cs
   0.4999999990309684    0.5330334300245808    0.6165843083048181 Cs
  -0.0000000007526448    0.5055485390044926    0.0873405795872789 Na
   0.4999999996202985    0.2354101595305706    0.9006345323440647 Li
   0.5000000036403262    0.5363054351557215    0.2655478838376200 Bi
   0.4999999964816195    0.4830821762183219    0.2580770257816412 Sb
