Ba3 Te2 S1
1.0
   6.0000000000000018    0.0000000000000000    0.0000000000000000
   0.0000000000000000    7.3501683366840975    0.1504615403130726
   0.0000000000000000    0.1475792831258246    7.3836537294179330
Ba Te S
3 2 1
direct
   0.0000000000000000    0.0453614548411496   -0.0208613631304816 Ba
   0.0000000000000000    0.5279441869705878    0.2148457110790546 Ba
   0.0000000000000000    0.5912960309636240    0.7193463082364584 Ba
   0.0000000000000000    0.1914144111887543    0.5328951695972984 Te
   0.0000000000000000    0.5288071378179928    0.2139796628329498 Te
   0.0000000000000000   -0.1286552183914630    0.3503095155788042 S
