Cs1 K1 Sc2 S1
1.0
   5.0734041293550192   -0.3148703203488474    0.1394792085763285
  -0.3148704331769808    5.0734073239248900   -0.1394786483972544
   0.1435759696008481   -0.1435752759340437    6.4004444499325066
Cs K Sc S
1 1 2 1
direct
   0.7693379247821287    0.2306619131174751    0.4166012297935074 Cs
   0.3111036215899594    0.6888964779358264    0.2642352971719908 K
   0.6771577089557153    0.3228423712253216   -0.0760046792260456 Sc
   0.2588686756609718    0.7411312049044729    0.8739523840811523 Sc
   0.3168650673416981    0.6831350344001418    0.2790217731806693 S
