K1 Li1 Mo1 F2
1.0
   5.9201954910416994    0.0402534058958878   -0.0198311537130485
   0.0404353941994967    6.0456472401795214   -0.0598782643653075
  -0.0190972201165345   -0.0568355556965545    6.6219059864985166
K Li Mo F
1 1 1 2
direct
   0.0124416416175575    0.4940171658913993    0.2530601124256543 K
   0.0040170128352998    0.0036419324290778    0.5486551308121768 Li
   0.0019279478176411   -0.0031366292006500   -0.0554366913643370 Mo
   0.2194084869633899    0.2622059145360366   -0.0058511088696861 F
  -0.0098530887555891   -0.0134563848176550    0.2658425590880378 F
