K2 In2 As1 F1
1.0
   5.8944307619824015   -0.0781573069306567   -0.0282624497931260
  -0.0784342391815383    6.0357208357107295   -0.0013818973453600
  -0.0273506788252500   -0.0024946582660846    6.6502616032450739
K In As F
2 2 1 1
direct
  -0.0278990250926550    0.0243028001840974    0.7159317028276436 K
   0.3462738100327497    0.6781987790228901    0.1685520072799763 K
   0.3548792573660021    0.6519913710498014    0.5629232918999576 In
   0.3321452415751286    0.6605591402458399   -0.1196497612784527 In
   0.3298971903326664    0.6721155901086817    0.9413366471848623 As
   0.4980355262401884   -0.0204996804257305    0.5183461221808673 F
