Cs1 Au2 Br2
1.0
   6.0057407684296189    0.0446321502725689   -0.2445007045182391
   0.0518403571714067    7.0591006521354656   -0.1379858788872463
  -0.2122027757097574   -0.1112802239152491    7.8008073074707571
Cs Au Br
1 2 2
direct
  -0.0210504434246206    0.4881296792536375    0.2604087943383256 Cs
   0.0007036280199854    0.0045833377280409   -0.0525941388777516 Au
  -0.0000000040742793    0.0001850413638525    0.6100859664475211 Au
   0.2905707933093997    0.2473832758775587   -0.0779107954631419 Br
  -0.0416719786425982   -0.0117293299824960    0.2955891673517415 Br
