Ba2 Te1 S1
1.0
   6.0000000000000000    0.0000000000000000    0.0000000000000000
   0.0000000000000000    6.5677087511821304   -0.0000000207917762
   0.0000000000000000   -0.0000000195519495    6.5686847044877759
Ba Te S
2 1 1
direct
   0.0000000000000000   -0.0000000003907032    0.6033364494629793 Ba
   0.0000000000000000    0.5000000003263217    0.1140288434462999 Ba
   0.0000000000000000    0.4999999999780613    0.6153668218794086 Te
   0.0000000000000000   -0.0000000001714350    0.1029958794289752 S
