Na2 Ag1 Bi1 As1
1.0
   5.7928562777675960   -0.5958511950642000   -0.0433313621792158
  -0.5645729483589681    5.3916374061338885    0.2025031938783463
  -0.1185602193798834    0.1923968242754915    4.5339704374286063
Na Ag Bi As
2 1 1 1
direct
  -0.1066669789582556    0.2625515996980722    0.7816633149924697 Na
   0.4099499336535349    0.4204593193267992    0.2596763966258145 Na
   0.3460821412296064   -0.0794444053736571    0.8352108324227229 Ag
   0.0134304619515257   -0.1956584421043490    0.3258818220366214 Bi
   0.5886544314554001   -0.0494020625535512    0.3500346103127842 As
