K1 Zr1 Au2
1.0
   6.2796001110358057   -0.0000000164372606    0.3049773228675442
  -0.0000000143157895    5.3311800837795147    0.0000000394231641
   0.3034731006473105    0.0000000416618833    5.9711178704969505
K Zr Au
1 1 2
direct
   0.3350263771737113    0.2500000029159057    0.5373940956307299 K
  -0.0264732434891592    0.2500000094298909    0.2068549985587753 Zr
   0.0035114907073015    0.7499999911853512    0.4171619894449842 Au
  -0.0099306276741723    0.2499999964122294    0.2693339234506866 Au
