Cs1 Na1 Li2 Bi1 Sb1
1.0
   5.2828642302839732    0.0000000187021570    0.0000000052875059
   0.0000000228217860    6.7150368136675347    0.0249457723803907
   0.0000000056791446    0.0253742708525945    6.0780779264644096
Cs Na Li Bi Sb
1 1 2 1 1
direct
   0.5000000015811696    0.5475494009851329    0.4870911657791904 Cs
   0.4999999907261569    0.0012311887344523    0.4864458319607683 Na
  -0.0000000028739606    0.1192463574927797    0.7576100887301557 Li
   0.4999999995511963    0.2020263237353552    0.0681105420877315 Li
   0.0000000015510142   -0.0070688574719106    0.3359244244341705 Bi
   0.5000000098049697    0.0430645872074561    0.4920919392146322 Sb
