Rb1 Na1 Cu1 As1
1.0
   5.2749655900022443    0.2794756372243888   -0.4523576581535969
   0.2820827185514417    5.6759707195848863   -0.3089591366385821
  -0.4460051213314120   -0.2658228279234912    4.3206279815708726
Rb Na Cu As
1 1 1 1
direct
   0.0809953660695518    0.7558299902526140    0.7886140768274856 Rb
   0.6434288927257652    0.3138012861210574   -0.0055373023884513 Na
   0.5416436178000059   -0.0552901626577041    0.3785003079325659 Cu
   0.2301861240225282    0.2356588938613088    0.3564249233888757 As
