Cs1 Rb1 Li2 As1
1.0
   5.2136138277812432    0.0070824113041426    0.0006839245710827
   0.0061431447265053    6.1432648527066007   -0.4914475069624844
   0.0011849824319649   -0.4902443951909776    5.4585209125730714
Cs Rb Li As
1 1 2 1
direct
  -0.0001448157532811   -0.0912138026504265    0.3792548298367732 Cs
   0.4998321779582661    0.4784887390012280    0.5297397399643258 Rb
   0.0050186268545429    0.2468882930852171   -0.0571033404553745 Li
   0.5115851159858196    0.0462734851699816    0.9260555214803589 Li
   0.4837088930324173    0.0596142833318633    0.9268322540272582 As
