K1 Ba2 Te2
1.0
   4.4007987769875285    0.0000000031166879   -0.0000000119375692
  -0.0000000050223868    7.3390189960261303   -0.6021689767233065
  -0.0000000113561651   -0.7899554045822952    6.7989448727981872
K Ba Te
1 2 2
direct
  -0.0000000009767971    0.4428456198099945    0.2991675059034087 K
   0.0000000004238123   -0.0300984127501070    0.4081330914196299 Ba
   0.0000000066620842    0.6224530408090732    0.8408197238333451 Ba
   0.5000000032690963    0.2702666959629179    0.6837840466660267 Te
  -0.0000000009168761    0.4499820514304135    0.3002456256337219 Te
