Cs1 Na3 Bi1 As1
1.0
   6.5585074656028954   -0.0495517070554292    0.0034659832186998
  -0.0823576025319561    5.1544308837856541    0.9639537454941065
   0.0848059602507368    0.6291052496982315    7.4794231617558271
Cs Na Bi As
1 3 1 1
direct
   0.1745488349362192    0.0367625265947216   -0.1035918857502240 Cs
  -0.2766029195801005    0.4836072541822020    0.8283884523629796 Na
  -0.1718666492801189    0.3673900986885597    0.2850166559814215 Na
   0.4614494571740735    0.6747832115944280    0.4560090433914765 Na
  -0.0270568929279221   -0.1919350385989470    0.4802639332350876 Bi
   0.6696811813629722    0.0494709655555712    0.6386017346489529 As
