Cs1 Na1 Bi1 Te2 S2
1.0
   6.4293829052302947   -0.0000000003180628   -0.0000000095277666
  -0.0000000003005439    6.6573948516792001   -0.0000000087250855
  -0.0000000085166311   -0.0000000113638761    9.7473872868258660
Cs Na Bi Te S
1 1 1 2 2
direct
  -0.0000000003161100    0.5000000009999204    0.4825550478410159 Cs
  -0.0000000012395275   -0.0000000007237214    0.5207823495309587 Na
   0.0000000085507539    0.0000000062743166   -0.0531905985067144 Bi
  -0.0000000043759134   -0.0000000037675801    0.0458339821543273 Te
   0.4999999989071355   -0.0000000008216675    0.5512591229706756 Te
   0.0000000002571018    0.4999999999785679   -0.1603117522488394 S
   0.4999999980135544   -0.0000000006413861    0.3171928435652071 S
