Rb3 Te3
1.0
   6.8858066639869548    0.0000831216086957   -0.7814285312970182
   0.0000821070248221    6.2698466412812861    0.0001157082928718
  -0.6019629436100767    0.0001018171861045    7.4450870557225404
Rb Te
3 3
direct
  -0.3166852997323045    0.7499982196576791   -0.0543121964599805 Rb
   0.0839880902873496    0.7499984601421963    0.6179136129451647 Rb
   0.4439944921602713    0.2500085968045082    0.3286806449390027 Rb
   0.0696395154714284    0.2499367818648692    0.9537799082325219 Te
   0.5605977157624136    0.7500017110037480    0.4267900366595937 Te
   0.2090984702522694    0.7500562325993344    0.1285989770628920 Te
