Sr1 Si2 Pt1
1.0
   6.0000000000000000    0.0000000000000000    0.0000000000000000
   0.0000000000000000    4.1200825865486292   -0.0000000932570245
   0.0000000000000000   -0.0000000459929324    8.6094380633892822
Sr Si Pt
1 2 1
direct
   0.0000000000000000   -0.0000000180347938    0.6214244623686627 Sr
   0.0000000000000000    0.4999999912151925    0.3483789668052255 Si
   0.0000000000000000   -0.0000000067898176    0.9776018691525835 Si
   0.0000000000000000    0.0000000336286460    0.2453427052545626 Pt
