K1 Rb1 Li2 As1
1.0
   4.6901222304661285    0.0000020731236656   -0.0000011354627814
   0.0000013996241167    6.2518547704192251   -0.6384849938894781
  -0.0000006860605521   -0.6574909166746967    6.6113642955129031
K Rb Li As
1 1 2 1
direct
   0.0000000020176365    0.5150065179604719    0.6113461108578088 K
   0.4999994608248235   -0.0728620379085751    0.2274648660138030 Rb
   0.0000002041381726    0.0669619426936722    0.8322556254654092 Li
   0.4999997793989081    0.3614170398659146    0.0024866264140903 Li
   0.5000005524013020    0.0576655428951822    0.7261917698797734 As
