Ba3 Te2 S1
1.0
   5.9521875420187644   -0.0000000000077182    0.0000000000051585
  -0.0000000000103259    5.8525583995586752   -0.0142741991315508
   0.0000000000169276   -0.0136721778052818    6.5968268527541074
Ba Te S
3 2 1
direct
  -0.0000000000087297    0.4926435568145474    0.2453027287510595 Ba
   0.0000000000733690    0.4809556247377179    0.2116224463624389 Ba
   0.0000000000233584    0.5151422965860226    0.7414925439060309 Ba
   0.4999999999783539    0.2451280891905303    0.7599978914230072 Te
  -0.0000000000916053    0.5040725944706224    0.2782211081030393 Te
   0.0000000000032181    0.0073538283712062    0.9057122414928213 S
