Rb1 Sr1 Te1 O1
1.0
   6.4566252086854741    0.2297699848299142   -0.1658157593000927
   0.2317377937348818    5.5033112775770245    0.0973998955572948
  -0.1340970826344500    0.0924524468568935    7.4634608051197793
Rb Sr Te O
1 1 1 1
direct
  -0.0459648596750841    0.1994523876045069    0.6721075169076237 Rb
   0.4127284879084720    0.2371129047367467    0.1434109118330373 Sr
  -0.0898913128972833    0.2517237298710010    0.1742144351868209 Te
   0.1880766816330008    0.0717609777290679   -0.0378218628785747 O
