Rb1 Na1 Ca1 F2
1.0
   3.2804025681313149    0.4074028041057106    1.3247915415175360
   0.1694514688980612    6.7503978486419856    1.9997111215379784
   0.9793611147472520    1.7470866939480940    6.8925291026245699
Rb Na Ca F
1 1 1 2
direct
  -0.2576404124111354    0.5519226724659542    0.2411409881516212 Rb
   0.1422586054675625   -0.0883984578465731    0.5242968210990180 Na
   0.2636980308332150    0.1840513955488539   -0.1139199753183434 Ca
   0.0148388175317398    0.2557539476706672    0.6189322465712377 F
   0.0436379506438751   -0.1108905679234131    0.2296389243689629 F
