Cs1 Na1 Cd1 Bi1 As1
1.0
   5.8195191030255273   -0.0000000006482792   -0.0000000001407796
  -0.0000000006154152    6.3069864597764811   -0.0258488479075973
  -0.0000000002100557   -0.0263140073867799    6.2990070298792471
Cs Na Cd Bi As
1 1 1 1 1
direct
  -0.0000000000007501    0.0126001881839421    0.8762276785652716 Cs
   0.0000000000619223    0.3680888671908791    0.3403060326985257 Na
   0.0000000000512543    0.0061964097231669   -0.0828534057005834 Cd
  -0.0000000000695801   -0.1348565858584140    0.3644841714771443 Bi
   0.4999999998412595   -0.0020288947957627    0.6853065185964716 As
