Na2 Ag1 P1
1.0
   4.2683171880855673   -0.0000022063666041   -0.5933041974988795
  -0.0000026810408725    4.1192381203238755   -0.0000051049046156
  -0.4862046559544861   -0.0000037229617165    6.6343551868053918
Na Ag P
2 1 1
direct
   0.0116813183678818    0.4999998193880351    0.3555016589399564 Na
   0.4894338610973133    0.5000000033403286    0.9261646209673633 Na
  -0.1551501548778584    0.0000000767827967    0.6916797964955657 Ag
   0.0411669741966154    0.0000000975017338    0.0489579197384580 P
