Cs1 Na1 Sc1 F2
1.0
   5.6850194106773166    0.2138332088703565    0.1649768850782240
   0.2049424982505429    5.3593704039129673    0.0858692643204928
   0.1629476591840937    0.0943273568255100    5.8093009797732051
Cs Na Sc F
1 1 1 2
direct
   0.2453560490328269    0.3187676331847436    0.5347463591997572 Cs
   0.2791399788101884    0.5456566053462900   -0.0101785186794093 Na
  -0.0263797828785003   -0.0049171201788583    0.5115751355152273 Sc
   0.2264379303071695    0.3184432581114491    0.5380544201891699 F
  -0.0250761757832857   -0.0713073719968720    0.1878016021271695 F
