Ba3 Te2 S1
1.0
   7.3917861695212395    0.0000001498713734    0.0184126564572869
   0.0000001788338447    5.7794679855932394   -0.0000000446371185
   0.0196768692959521   -0.0000000438311318    6.2350350541303552
Ba Te S
3 2 1
direct
   0.1394482914740451    0.5000001421563900    0.2217620215740790 Ba
  -0.0087226834943423   -0.0000000152340079    0.7230556950393461 Ba
  -0.0095095789541117    0.0000000075108365    0.7770388829570825 Ba
   0.5725434483932843    0.4999999927011478    0.2717532889108173 Te
  -0.0300750165347933    0.4999999053695950    0.2631528032155513 Te
   0.0000555406495328   -0.0000000317044972    0.2521383079357709 S
