Ba2 Te1 O1
1.0
   6.0000000000000000    0.0000000000000000    0.0000000000000000
   0.0000000000000000    5.7891756443658506    0.0000000085968187
   0.0000000000000000    0.0000000085692471    5.7378707893380803
Ba Te O
2 1 1
direct
   0.0000000000000000    0.0000000000033367    0.6005844548651131 Ba
   0.0000000000000000    0.4999999949733364    0.3219454412109416 Ba
   0.0000000000000000    0.5000000052132303    0.2644470688387917 Te
   0.0000000000000000   -0.0000000001524317    0.0180410386973232 O
