Cs1 Na1 Bi1 F2
1.0
   2.9509539585942264    1.0913467708203202    1.0427722181117720
   0.5887878117426659    7.8637793517006269    0.9281624733743683
   0.7970126870224512    0.6934685140100874    7.4116702322223080
Cs Na Bi F
1 1 1 2
direct
  -0.2268785423926815    0.5500864630906644    0.2674729195591835 Cs
   0.0889959343284876    0.0624068061247197    0.4523385489909011 Na
   0.0814857139527425    0.0431267564934582   -0.0194385510254692 Bi
   0.3782184528906789    0.2739499431899753    0.4458550902397116 F
  -0.1148295730921293   -0.1371379547126596    0.3538609939963255 F
