Li2 Bi1 Au1
1.0
   6.0000000000000000    0.0000000000000000    0.0000000000000000
   0.0000000000000000    6.1374499922941945    0.0434417296480841
   0.0000000000000000    0.0386287774543670    6.1470538718366861
Li Bi Au
2 1 1
direct
   0.0000000000000000   -0.0614861527218264    0.6577184504780899 Li
   0.0000000000000000    0.2679768254487681    0.9382527032998407 Li
   0.0000000000000000   -0.0044754016231373    0.2302588630622492 Bi
   0.0000000000000000   -0.0114822714851884    0.2498189808317362 Au
