Ba1 Si2 Pt1
1.0
   6.0000000000000000    0.0000000000000000    0.0000000000000000
   0.0000000000000000    4.2244127813897308    0.0000021870287869
   0.0000000000000000    0.0000015262239580    8.6068179323144847
Ba Si Pt
1 2 1
direct
   0.0000000000000000    0.0000000641785335    0.9837922012997303 Ba
   0.0000000000000000    0.4999998989818401    0.2782569613632246 Si
   0.0000000000000000   -0.0000003248615802    0.3893041019114402 Si
   0.0000000000000000    0.0000003622210152    0.6437277427582402 Pt
