Ba1 Al2 Au1
1.0
   6.0000000000000000    0.0000000000000000    0.0000000000000000
   0.0000000000000000    4.4358188194232513   -0.0000001206038754
   0.0000000000000000    0.0000001331576932    9.0540818692309841
Ba Al Au
1 2 1
direct
   0.0000000000000000   -0.0000000020147509    0.9444082786262681 Ba
   0.0000000000000000    0.5000000517624082    0.4001215796511588 Al
   0.0000000000000000   -0.0000000758315925    0.5735906462895516 Al
   0.0000000000000000    0.0000000260711576    0.2786685021789691 Au
