Cs1 Rb1 Li2 Bi1 Sb1
1.0
   4.8049007590111366    0.0000001641138584    0.0000000395362022
   0.0000001207872346    6.6154828125826590    0.1754152293718357
  -0.0000000871223946    0.5657854535371225   11.8337085294641859
Cs Rb Li Bi Sb
1 1 2 1 1
direct
   0.0000000026039438   -0.0706708213803435    0.7077732094062058 Cs
   0.4999999863631832    0.5008897769334947    0.4187130641246609 Rb
  -0.0000000036422876    0.4200859629820860    0.8849694190344548 Li
   0.4999999927536608    0.1208802430056934   -0.0691121219168904 Li
   0.4999999988622584    0.5843783329906560    0.3244132985210247 Bi
   0.5000000209668763    0.4314695091777784    0.7810131312817077 Sb
