Ba3 Te1 O1
1.0
   6.4978742838830801   -0.0000000203342866   -0.0001453429597056
  -0.0000001780318053    4.5888878425581865   -0.0061451525162808
  -0.0001458802100420   -0.0044688238838887    6.4695521870179666
Ba Te O
3 1 1
direct
   0.0002892620400356    0.4995443775126984    0.1428605205210144 Ba
  -0.0001043423257054    0.5016824996953637    0.9534594709348326 Ba
  -0.0000581620403403    0.4994964996020163    0.3331754159393146 Ba
   0.4998703916682987    0.4998629909572300    0.3852362041447132 Te
   0.0000028506417111   -0.0005863679947717    0.2482663790370920 O
