Ba3 Se1 O2
1.0
   5.3417372914035388   -0.1429845798917666    1.3159738999371129
  -0.0437874963292586    4.3176334071862090    0.6646944330663156
   1.0132448105672109    0.3839453065909906    7.5070914989567683
Ba Se O
3 1 2
direct
   0.0140555163302298   -0.0814363100320681    0.8251488955331779 Ba
   0.3127228458215327    0.7752643325384947    0.2334314882431398 Ba
   0.7228173270662669    0.2308229841290286    0.4182942812454339 Ba
   0.4936515596545974    0.4142462505907608   -0.1455975443376289 Se
  -0.1763404634172571   -0.1982402925198241    0.2079180655374123 O
   0.1997602109902034    0.1926760237076632    0.4502618905502744 O
