Ba3 Te2 S1
1.0
   6.0075464860251584   -0.0001479087074281   -0.0028466073169022
  -0.0001479087069848    6.0076108232290490   -0.0022961562413589
  -0.0027361865629442   -0.0022070847650497    7.0450224069220795
Ba Te S
3 2 1
direct
   0.4999638816584742    0.4999708977594352    0.5741839250641119 Ba
  -0.0000271279218928   -0.0000219277066138    0.8239597797096031 Ba
  -0.0000210429950805   -0.0000170150218810    0.8244249895045972 Ba
   0.5000015688524168    0.5000013051589718    0.1189905005462109 Te
  -0.0000138774797570   -0.0000111700927114    0.4575910320507591 Te
   0.0000965974965359    0.0000779095970318    0.1454097608691628 S
