Li1 Zr1 Ag1 Te1 O1
1.0
   6.3385202466017603   -0.0000000535698559   -0.1576033585800614
  -0.0000000557673018    7.5666945179892977   -0.0000004733987748
  -0.1586634058995331   -0.0000004502754518    8.8962810788828506
Li Zr Ag Te O
1 1 1 1 1
direct
   0.0643332516197788    0.2500001549355517    0.7412485953265060 Li
   0.2245148157952608    0.7499999885555665    0.2604474771818474 Zr
   0.0609664153423794    0.2499999172727281    0.7510262796432506 Ag
   0.0579440977170823    0.7499999380487822    0.2533691570715419 Te
   0.1044474148116694    0.7500000007672420    0.4818044904643457 O
