Ba3 Se1 O1
1.0
   5.4216462279362005   -0.3896424348812241    0.0002831718060891
  -0.3896411344788271    5.4220161119171433   -0.0003554295123139
   0.0009297813042277   -0.0010012881706949    5.6202523627969452
Ba Se O
3 1 1
direct
  -0.0342172329986230    0.0342375358034339    0.6941214711253668 Ba
   0.2940374944953409    0.7058774243602329    0.2140000818484969 Ba
   0.7104791224041789    0.2895134294177129    0.2203590788456822 Ba
   0.6947475185600815    0.3052446629038676    0.2267551996690111 Se
   0.0016200965852455   -0.0015400547025382    0.1301261683098752 O
