Rb1 Sr1 I3
1.0
   5.9838734896421961   -0.1301467856880456    0.1703078913236117
  -0.1351859979349049    6.7650984464045436    0.2332061509478571
   0.1751591357210934    0.2670820727665022    8.0480195914545654
Rb Sr I
1 1 3
direct
  -0.0523665677846871    0.3319512085742725    0.6348728414419242 Rb
  -0.0062336724375705   -0.1094229123924723   -0.0692378057470677 Sr
   0.0141554052543042    0.4009456670072007    0.1074686477845955 I
   0.0306146464295789    0.1605122240476922    0.2727371468024036 I
   0.1682511895587340    0.3857618094482294    0.1113211717498002 I
