Cs1 Rb1 Li2 Bi1 Sb1
1.0
   5.0328145764177190   -0.0000005455867064    0.0000004583093042
  -0.0000004968080855    5.8973406441742293   -0.3921290586294737
   0.0000003145293873   -0.4222795513547092    9.6760398711122928
Cs Rb Li Bi Sb
1 1 2 1 1
direct
   0.5000000358637349    0.8527292988954830    0.7693422285121710 Cs
   0.0000000518497859    0.2998145924193568    0.3502233606423867 Rb
  -0.0000000234137826    0.1973465937742434    0.0369488166211129 Li
   0.0000001265371714    0.4150501014465500    0.8232046899543490 Li
  -0.0000001996386723   -0.2757082726928884    0.0753301543844796 Bi
   0.5000000063191412    0.3901796915059617    0.0090576860326257 Sb
