K1 Na1 P2
1.0
   5.1615570695332131   -0.0581299549448714    0.4105532283837071
  -0.0581296423002350    5.1615678125752416   -0.4105520855579664
   0.3937704097694207   -0.3937699433071693    6.1938453493516805
K Na P
1 1 2
direct
   0.3961980074722984    0.6038015403757732    0.5874306658264343 K
   0.2949500648856879    0.7050512982187404    0.0918480355984463 Na
   0.2765017259251707    0.7234980423968590    1.1148754086756645 P
   0.0323492019306583   -0.0323498823710490    0.3884468883799621 P
