Rb1 Li1 Mo1 F2
1.0
   5.4418055520498410    0.0389125542047408   -0.3135965337693886
   0.0392798854400240    5.4630489387595560   -0.3932092393569462
  -0.2873594296271136   -0.3587174382643594    6.0103280246037407
Rb Li Mo F
1 1 1 2
direct
   0.5262494129093348    0.5317367093276263    0.2086880329538219 Rb
   0.0216804875431479    0.0296089435792153    0.0475187758547990 Li
   0.0559797320192458    0.0683492514379425    0.5738099451519644 Mo
   0.2028056142837168    0.2443710022253032   -0.0842868365388914 F
  -0.1038702414716369   -0.1307909043242105    0.2555600755495949 F
