Cs1 Rb1 Li2 As1
1.0
   4.7843067742181233    0.0000002610935222   -0.0000031191079485
   0.0000001526985984    7.8310074799817295    2.3228994441084780
  -0.0000028683875482    2.0999667186779938    6.4598745968763760
Cs Rb Li As
1 1 2 1
direct
   0.5000000048613532    0.5694563918621441    0.3497990465190993 Cs
   0.0000001525236963   -0.0267098813563246    0.5916389934544914 Rb
  -0.0000000880467161    0.1057240440228413    0.9821938486650690 Li
   0.5000001559128009    0.2928165422457097    0.0194299896028308 Li
   0.4999997710712464    0.0673208991052466    0.9056521097462290 As
