Cs1 Na1 Sc1 S1 O1
1.0
   5.9917487385159856    0.0030317028129176    0.0021890953950755
   0.0030317029647374    5.9917491752554852   -0.0021892713044376
   0.0021971718646202   -0.0021973485524121    5.9703848856721748
Cs Na Sc S O
1 1 1 1 1
direct
   0.3330094865517912    0.6669906270469945    0.7357598870455817 Cs
   0.3301677679754201    0.6698350878868015    0.1029280854604407 Na
   0.3312338713457217    0.6687691844027124    0.2346468974834842 Sc
   0.0015566570034232   -0.0015566674688289    0.3311310122938898 S
   0.3373642171432366    0.6626297680747507    0.1570781169322034 O
