Cs1 Na1 Sc1 F3
1.0
   5.5263675706273254    0.0739648003773264   -0.0303438278884186
   0.0738155304736596    6.1007511866727775   -0.6287625354311178
  -0.0217390762869450   -0.6111599443194090    6.1105724256658736
Cs Na Sc F
1 1 1 3
direct
  -0.1769090983816782   -0.0789325006831007   -0.0045787355241416 Cs
   0.1165269106618419    0.5014131697625273    0.2263192983573181 Na
   0.1533707827631627    0.1669073212915409    0.6001265044698944 Sc
   0.2523261567386842   -0.0938574463846407    0.3570359205407916 F
   0.2008576434512470    0.2449124919227944   -0.0962988390101959 F
   0.2153636025886677    0.2410379621652684   -0.0723411539406880 F
