Ba3 Y1 Se1 O2
1.0
   5.5434495205152778   -0.4670273461633605    0.4238202270099807
  -0.5009687808450540    6.4805029207579832    0.1366980789963409
   0.3991622485327530    0.1144251977839852    6.6462044692383859
Ba Y Se O
3 1 1 2
direct
  -0.0511303576497087    0.0737530877213437    0.6222921632443900 Ba
   0.2783486106062895    0.6572353828862704    0.3866669112616977 Ba
   0.6223109324585326    0.2040259356498394    0.1890916281605692 Ba
   0.3233781643628518    0.8077729155743824   -0.1251255073432019 Y
   0.0826884775975120   -0.0157394525972138    0.1494245475999714 Se
   0.1042640507169144   -0.0302074098955421    0.1455616268544313 O
   0.4734731251307999   -0.0301734597697899    0.5927746235212319 O
