Cs1 Rb1 Li2 As1
1.0
   4.4080897934056864   -0.0000007974602960   -0.0000003978804143
  -0.0000003942540117    7.9675117154282979    1.7147901428482475
  -0.0000001648205945    1.8858632925083607    6.0681786502472992
Cs Rb Li As
1 1 2 1
direct
   0.5000000476552080    0.6548120077529804    0.3631592662713694 Cs
   0.4999999702552262   -0.0187307179154007    0.6617479618477563 Rb
  -0.0000000018143199    0.3081752622011898    0.8973781588191501 Li
   0.5000000297367423    0.4554372280595709    0.0282087406502299 Li
  -0.0000000471012795   -0.3910897453055138    0.8885878736014732 As
