Cs1 Rb2 Li2 Sb1
1.0
   4.8513157370587212    0.0000003074752911   -0.0000073413122802
  -0.0000004809049148    6.0804613838750114   -0.4760104556527304
  -0.0000030479912486   -0.2199862612165809   11.3363525791014812
Cs Rb Li Sb
1 2 2 1
direct
   0.0000012000228055    0.0820624031370968    0.6005403107758209 Cs
   0.5000025591445767    0.7273569308642861    0.2307754106355963 Rb
   0.5000014105563398    0.6142539181416582    0.8660386107601344 Rb
  -0.0000010940542689    0.2565282068323737    0.1633412421874690 Li
  -0.0000022814798830    0.0762163643957584    0.9369779450196283 Li
   0.4999982164258278    0.1736811821978707    0.0434555222164136 Sb
