Cs1 Rb1 Li3 Sb1
1.0
   5.0879808083937172    0.0000000177246729    0.0000000196505474
   0.0000000253387650    7.3333332492043564   -0.3984071128574329
   0.0000000268321760   -0.3836973206825767    6.2556204462842384
Cs Rb Li Sb
1 1 3 1
direct
   0.0000000060653077    0.5101832971849763    0.6367600440473871 Cs
   0.5000000010481050   -0.1202060060683252    0.2506350635109383 Rb
  -0.0000000112822268    0.0962725743549799    0.9104102464687638 Li
   0.4999999862671126    0.3605826182842650    0.1010933495418084 Li
   0.5000000223695572    0.3462655346507305    0.1222990624678872 Li
   0.4999999957551604    0.1328849837309916    0.7595512266696258 Sb
