Ba2 Te1 Se1 S2
1.0
  10.8953866920338243   -0.0000000668182946   -0.0527716394232355
  -0.0000000466155836    6.0000000000037392    0.0000000365584103
   0.1036343334566845    0.0000000377449544    6.6267405919029603
Ba Te Se S
2 1 1 2
direct
  -0.0896791046869934    0.7500000004947445    0.5261582951616420 Ba
   0.2902878422091963    0.7500000001383214    0.8942752716534516 Ba
  -0.0264701497985214    0.7500000007966422    1.0207736566944092 Te
   0.4193357097259798    0.7499999999450221    0.2724740580572825 Se
   0.6158153984198911    0.7499999987083287    0.4274367887508849 S
   0.4890302877828245    0.7499999999168449    0.1797839445287830 S
