Ba3 Te2 S1
1.0
   5.9362186356607829   -0.0000408726939397   -0.0000298022933309
  -0.0000202049352595    6.3857252272235741    2.2609307610846985
  -0.0000055381140722    1.2983357367105453   10.7834003682630239
Ba Te S
3 2 1
direct
   0.5000024589257086    0.0696250157693825    0.3347920212184973 Ba
   0.0000000633250467   -0.0832664013192227    0.1046144872920084 Ba
   0.0000005485230497    0.3676366820295575    0.4707365534364855 Ba
   0.5000004338732850    0.6119002621914783    0.2858860307342396 Te
  -0.0000041890832434    0.3978912501488853    0.1304312085316618 Te
   0.0000006868662233   -0.1336907971006156    0.4224347020077433 S
