Cs1 Na1 Cd1 Bi1
1.0
   5.2979341215751292    0.0117728860538498    0.0153554952764369
  -0.0443804784441384    5.4655915156958592    0.0360911577246315
  -0.0017979276214605    0.0431149703175892    6.1059460234880722
Cs Na Cd Bi
1 1 1 1
direct
  -0.3188013865611483    0.3812318302371639    0.1682402908746006 Cs
   0.1441304473092306    0.3731082803101748    0.7029966877094926 Na
   0.1900281824654954   -0.1208840165109602    0.4349694290296743 Cd
   0.1846427500935436   -0.1310961007600758   -0.0562064047161267 Bi
