Na2 Mg2 P1
1.0
   6.0000000000009717   -0.0000000000000152   -0.0000000045113497
  -0.0000000000000196    6.0000000000006954   -0.0000000019948070
  -0.0000000047765739   -0.0000000023032722    6.1983392424998680
Na Mg P
2 2 1
direct
   0.3333330000334999    0.6666670000345277    0.4452330817922806 Na
   0.3333329999041038    0.6666669999148213    0.8408791406124899 Na
   0.3333330000071058    0.6666669999979057    0.2216411679481348 Mg
   0.3333330000288195    0.6666670000269692    0.1535324634493092 Mg
   0.3333330000264710    0.6666670000257802    0.4015201423900029 P
