Cs1 Na1 Ag1 As1
1.0
   6.4165193164945702   -0.7556952973533069   -0.4524618912765082
  -0.8593908279177684    5.0912944816918850   -0.6354181770731109
  -0.1958106154110656   -0.6316125728340360    4.5481619743042678
Cs Na Ag As
1 1 1 1
direct
  -0.0886482106657359    0.6035536568711199    0.9271732556800585 Cs
   0.4413575753881722    0.7560654038240924    0.4787915636314005 Na
   0.4149561121562147    0.1783979320709191    0.0919986395280755 Ag
   0.2550675325751640    0.2119830014895903    0.5856205539374629 As
