K1 Li1 Mo1 O1
1.0
   6.0000000000000000    0.0000000000000000    0.0000000000000000
   0.0000000000000000    6.4851326291322966   -1.1531163266209257
   0.0000000000000000   -1.3009455139243729    6.0886287868533460
K Li Mo O
1 1 1 1
direct
   0.0000000000000000    0.5986360922597115    0.3197627588372980 K
   0.0000000000000000    0.2592206049769907    0.6953479899094148 Li
   0.0000000000000000   -0.0238055869414964    0.9865907489778515 Mo
   0.0000000000000000    0.2550478811534370   -0.0277704963418135 O
