Ba1 Li1 B1 O1
1.0
   4.2262740736428075   -0.1574980759890943    0.0053379552133692
  -0.2607732689588691    5.3913900148121181    0.2670433632008519
  -0.0039567653560613    0.2497819525331274    4.0479048574811713
Ba Li B O
1 1 1 1
direct
   0.6298117252314871    0.4132171241030982    0.8023660941298826 Ba
   0.1015028811778939   -0.0320497756376909    0.3615512863924498 Li
   0.1458316701393799    0.5762060407724792    0.2781017153811923 B
   0.1257667240664009    0.3329636057768959    0.3083698977726012 O
