Ba3 Te2 S1
1.0
   6.0464691682565022   -0.0219126280383025   -0.0332759283336204
  -0.0218561182148334    6.0319493335126992    0.0103349122917544
  -0.0334157941487097    0.0105334398133884    6.1652074675231283
Ba Te S
3 2 1
direct
   0.2422368926171659    0.5774532464242823    0.7145731606732614 Ba
   0.0156059678414387    0.2390398162975993    0.0865206845918159 Ba
  -0.0200710586058152    0.7772038194204827    0.9818278170480664 Ba
   0.0639482705785482    0.7499644214638476    0.2765847632352335 Te
   0.1411173535122137    0.7515056685063627    0.2490027224623431 Te
   0.1379975740177041    0.7507780276208766    0.3019158511191085 S
