Na1 Sc1 S2
1.0
   3.5602000517358605   -1.0000875634785715   -0.6302293564176974
  -1.3975685461876917    3.1298328091454861   -1.5568045596332813
  -0.5048337481280565   -0.6888989862241992    8.9854760043489232
Na Sc S
1 1 2
direct
   0.0319520603843900    0.1975685713303440   -0.0380050017247816 Na
   0.0511497831860862   -0.2695754778200014    0.4609956848011968 Sc
   0.0171166853097862    0.4451689173385828    0.6768501465488633 S
   0.0824754784328537    0.0085399955078878    0.2432412007047969 S
