Ba3 Te2 S1
1.0
   6.0000000000005294    0.0000000000000000    0.0000000000000000
   0.0000000000000000    6.4118652145202679   -0.0036265707770889
   0.0000000000000000   -0.0033432190576480    8.2427922470023720
Ba Te S
3 2 1
direct
   0.0000000000000000   -0.0106310405003182    0.7084379509124296 Ba
   0.0000000000000000    0.5003155540493958    0.2027764101437938 Ba
   0.0000000000000000    0.0289433403380411    0.7154414222585675 Ba
   0.0000000000000000    0.5086277939365390    0.7472769571992731 Te
   0.0000000000000000   -0.0003868399660901    0.3445248468755268 Te
   0.0000000000000000    0.0003561927789528    0.0472354164207131 S
