K1 Na1 Mg1 Bi2 Te1
1.0
   5.9999999999999991    0.0000000000000000    0.0000000000000000
   0.0000000000000000    5.9716347059313426   -0.0000000067699488
   0.0000000000000000   -0.0000000068710011    5.9482456246272353
K Na Mg Bi Te
1 1 1 2 1
direct
   0.0000000000000000    0.0000000000154130   -0.0007270583172908 K
   0.0000000000000000    0.5000000005511608    0.2028872572863749 Na
   0.0000000000000000   -0.0000000000282865    0.4945375936490124 Mg
   0.0000000000000000    0.5000000001231161    0.2518666141684663 Bi
   0.0000000000000000    0.4999999999641716    0.1861848462335272 Bi
   0.0000000000000000    0.4999999993504887    0.2543717438358211 Te
