K1 Al1 Te1 Au1
1.0
   6.0000000000000000    0.0000000000000000    0.0000000000000000
   0.0000000000000000    4.3639162765914143    0.4720017503954499
   0.0000000000000000    0.9502743698376057    9.1414165389264710
K Al Te Au
1 1 1 1
direct
   0.0000000000000000    0.2318193843935367    0.4909344495251677 K
   0.0000000000000000    0.0243230996800322    0.9623107414449774 Al
   0.0000000000000000    0.5941358270094030    0.7893661457956854 Te
   0.0000000000000000   -0.1511953017771668    0.2196726656877765 Au
