Rb1 Na2 Sb1 As1
1.0
   5.1921349524588472    0.0000018075646953    0.0000008567610685
   0.0000021356887762    5.1983485992097513   -0.6087580771005079
   0.0000003236253108   -0.5493707132693466    6.8075179030790816
Rb Na Sb As
1 2 1 1
direct
   0.0000001394720160    0.6822173802489488   -0.0334577972871901 Rb
  -0.0000001339159284    0.1316013391155888    0.5237133294698194 Na
   0.5000000052424259    0.3031574337823916    0.2604170531712780 Na
   0.4999998899856757    0.1194366373035486    0.7851672143318293 Sb
   0.5000001080736608   -0.1560197917647048    0.4351071988607149 As
