Cs2 Y1 Se1
1.0
   7.7188907789726429    0.0000015772687148    2.1657215873550513
   0.0000043731148619    4.1762280738245501    0.0000065585856068
   2.7935614913929401    0.0000035635055199    7.4881668275759203
Cs Y Se
2 1 1
direct
  -0.1251006769009226    0.7500001498967814    0.8070384315680016 Cs
   0.2065822267035796    0.2500002276077082    0.1396127188091978 Cs
   0.5201223534577875    0.2500001185480819    0.4715327249949184 Y
   0.3838620966149347    0.7499995020554014    0.3413461338720921 Se
