Cs1 Na1 Sc1 F2
1.0
   3.5538423244672623    0.0619245347789169   -0.5842954199775835
  -0.0005623160583202    7.6762436504861107   -1.3814613470321757
  -0.4454107403949510   -1.1951274001326619    6.2280836806449766
Cs Na Sc F
1 1 1 2
direct
  -0.0470666552376287    0.5305103127610368    0.2654343522559041 Cs
  -0.0196924423869356   -0.0611707918623434   -0.0496464265983099 Na
   0.1345857574022166    0.1488545708868678    0.5755748888037980 Sc
   0.1986742508033162    0.2013651541083521   -0.0908856728023668 F
   0.0176200886109556   -0.0762852455151816    0.3114928641922426 F
