Ba1 Al2 Au1
1.0
   6.0000000000000000    0.0000000000000000    0.0000000000000000
   0.0000000000000000    4.3412403558416308   -0.0000033872538711
   0.0000000000000000   -0.0000014386806780    9.1260907619860454
Ba Al Au
1 2 1
direct
   0.0000000000000000   -0.0000001139570292    0.9743047337491668 Ba
   0.0000000000000000    0.4999999661773822    0.4417770105777573 Al
   0.0000000000000000    0.0000003452803063    0.6096744092803594 Al
   0.0000000000000000   -0.0000001988042035    0.3103828195060467 Au
