Cs1 Na1 Ca1 Bi1 As1
1.0
   5.9884484066011971   -0.0000000011111064   -0.0000062929292924
  -0.0000000011113954    5.9987026945877187   -0.0000000105208816
  -0.0000063332469441   -0.0000000106165275    5.9513316806325349
Cs Na Ca Bi As
1 1 1 1 1
direct
   0.0000184949248757    0.4999999998402045    0.2403560279555940 Cs
   0.0000000181788071    0.0000000000089031    0.5013794005858231 Na
  -0.0000333507131674    0.4999999999911739    0.1491841138419560 Ca
   0.0000148096019232    0.5000000001652011    0.2343140020058434 Bi
   0.5000000274925972    0.0000000000002975    0.9053174507380948 As
