Ba2 Cd1 Sb1 As2
1.0
   4.7132187244762944    0.0000000053200079   -0.0000001641699571
   0.0000000053479852    5.4711897154530531    0.0000000015818181
  -0.0000001171262663   -0.0000000010197103    7.4728297760342670
Ba Cd Sb As
2 1 1 2
direct
  -0.0000000302138426    0.0000000004962802    0.7248637813930288 Ba
   0.4999999683976077    0.5000000000128205    0.3208396880049190 Ba
   0.0000000881898719    0.4999999996993153    0.0030052704872529 Cd
   0.4999998744380178    0.5000000007590959    0.7813200913317406 Sb
   0.0000000045858628   -0.0000000006300314    0.2436465727141324 As
   0.5000000970693791   -0.0000000000354652    0.0660026144035571 As
