Rb1 Si2 Rh1
1.0
   6.0000000000000000    0.0000000000000000    0.0000000000000000
   0.0000000000000000    3.9815307406741094   -0.0000000333487656
   0.0000000000000000   -0.0000000070403824    8.6358416731462331
Rb Si Rh
1 2 1
direct
   0.0000000000000000    0.0000000139114577    0.6544999696967770 Rb
   0.0000000000000000    0.5000000106887198    0.1867129017547721 Si
   0.0000000000000000   -0.0000000152824966    1.0353964991351614 Si
   0.0000000000000000   -0.0000000106732922    0.3170196443156300 Rh
