Sr1 Si2 Pt1
1.0
   6.0000000000000000    0.0000000000000000    0.0000000000000000
   0.0000000000000000    4.1719104634172464    0.0000002673222957
   0.0000000000000000    0.0000002893460436    8.4158984190831188
Sr Si Pt
1 2 1
direct
   0.0000000000000000    0.0000000093134990    0.9914688800573135 Sr
   0.0000000000000000    0.5000000078922573    0.2733015498881364 Si
   0.0000000000000000    0.0000000028471255    0.3875644088454895 Si
   0.0000000000000000   -0.0000000208970490    0.6446961702174580 Pt
