Cs1 Na1 As1 F2
1.0
   3.3424572569818500   -0.7008120378617650    0.5414509202388295
  -0.3866548102464020    5.2929924618754018   -0.4161666060295571
   0.1513094949208955   -0.3421515381946558    7.5008395158950609
Cs Na As F
1 1 1 2
direct
   0.1155358617537242    0.5748069348365136    0.6140762975989783 Cs
  -0.2362296617474376    0.1455049524756735   -0.0295821498360987 Na
   0.0740866366521310    0.7114164509501406    0.1465577526662746 As
   0.3426428038264972    0.1577524701100332   -0.2266357664630973 F
  -0.0481416083780092    0.3689172056802733    0.2456728550771896 F
