K2 Sc2 S1
1.0
   5.7515632865803941   -0.3895155544907207   -0.0441716437825570
  -0.3895155442904489    5.7515648050084334    0.0441716523959381
  -0.0427106254113406    0.0427106309576756    5.6316156589808770
K Sc S
2 2 1
direct
  -0.0130996319993974    0.0130995789401192    0.7568429334639167 K
   0.3275573784283928    0.6724419518781213    0.2721324628175164 K
   0.7035932195665543    0.2964067102111665    0.2639847415895453 Sc
   0.3156972420307659    0.6843034354058444    0.3150271362643027 Sc
   0.3329177923009548    0.6670823233646083    0.8287297255007920 S
