K1 Na1 Ag1 Bi1 Sb1 P1
1.0
   4.8550006879450258   -0.9642281450524759   -0.4196990830360530
  -0.9239992070510026    6.4938179988925935    1.2858516458059646
  -0.3557616164575952    1.2350242802947031    6.5166612449650589
K Na Ag Bi Sb P
1 1 1 1 1 1
direct
   0.1858401521470528    0.6842286908838647    0.9531435262978055 K
   0.4752533422893120    0.1654054876943002    0.4300329611863624 Na
   0.4430085219130677    0.2636413983701349   -0.0945786636197256 Ag
  -0.1119851843228629    0.0579258331105594    0.1013643793970539 Bi
   0.5935759938803619    0.6556771802546687    0.5438547911142237 Sb
   0.0798551879302415    0.6939354061853606    0.4115700045441283 P
