K2 Sc1 S1
1.0
   4.7947967496056014   -0.3916487383380121   -0.0689429813822530
  -0.3916498983951968    4.7948208450031009    0.0689434178880184
  -0.0666507746128648    0.0666510650280095    5.3283521540013492
K Sc S
2 1 1
direct
   0.0119000751090817   -0.0118993902689207    0.7463666516729246 K
   0.3218934580475493    0.6781064612591824    0.2742165811034458 K
   0.6650502398312008    0.3349547936841304    0.2330784838002525 Sc
   0.3344892294628005    0.6655051367609383    0.2704342851195285 S
