Sr2 As2
1.0
   4.6979806583373955   -0.4338568604763307   -0.0448940806562916
  -0.4338568376214798    4.6979804259153966    0.0448938108828709
  -0.0459746356988822    0.0459743305993864    4.6555246688280771
Sr As
2 2
direct
   0.2916827437422782    0.7083172351500201    0.7713630315732055 Sr
   0.6706981468953586    0.3293018691012039    0.2767619002328940 Sr
   0.0820625056943414   -0.0820624751941148    0.2495074130655552 As
   0.2888896068482575    0.7111103776681292    0.7406936585183933 As
