Cs1 Na1 Si1 Bi1
1.0
   6.0000000000000000    0.0000000000000000    0.0000000000000000
   0.0000000000000000    5.8434744015183071   -0.0000000271862504
   0.0000000000000000   -0.0000000267605847    5.9075871314533437
Cs Na Si Bi
1 1 1 1
direct
   0.0000000000000000    0.5000000177325683    0.1843976523018991 Cs
   0.0000000000000000   -0.0000000011923557    0.5271867976315920 Na
   0.0000000000000000    0.0000000053347811    1.0100040753521879 Si
   0.0000000000000000    0.4999999782581558    0.1394544753083355 Bi
