K2 In2 S2 O2
1.0
   6.5868321654727140   -0.1291946874389959   -0.1614574672849604
  -0.1291946862692593    6.5868321166606716    0.1614579188960034
  -0.1518606332961684    0.1518610219080768    8.1043381563243830
K In S O
2 2 2 2
direct
  -0.0357801248156650    0.0357799941120506    0.6513450423938786 K
   0.3045713658956419    0.6954286244570104    0.1825347120681475 K
   0.4354895901818004    0.5645104099963905    0.4708064919883956 In
   0.0483443888983947   -0.0483444871625294    0.1413680750001083 In
   0.3460659621262635    0.6539339996841042    0.0719909522752482 S
   0.6462588001593675    0.3537415006885266    0.6143857988865289 S
  -0.0256867508008102    0.0256867149103455    0.3554890883000126 O
   0.2807357708325360    0.7192642412542890    0.9058008364222306 O
