Cs1 Na1 Sc1 F2
1.0
   4.6092461234483686    0.2106201964297911    0.0908123803290860
   0.1915944187011519    4.9238055823516405   -0.4599462304244861
   0.0281310199547518   -0.5825794463699070    8.0580371819179852
Cs Na Sc F
1 1 1 2
direct
   0.0109242353725567   -0.1529582798952746    0.9480853389969789 Cs
  -0.0789764945122760    0.4797050179624483    0.4284367821810528 Na
   0.4232407896385493   -0.0042187793152625    0.4817715190743809 Sc
   0.1103197710134618    0.1448173648945638    0.6419504318634629 F
   0.2844916922546746    0.1536246732888356    0.2902309304989246 F
