Mg1 Sc1 Zn1 Ag1
1.0
   3.1781571393323360    0.0188720365748299   -0.0000464062043474
   0.0188722840474818    3.1781582330141500   -0.0000454299962688
   0.0273303969236244    0.0273317076730902    7.5069821192890567
Mg Sc Zn Ag
1 1 1 1
direct
   0.3586561107764517    0.3586562806155765    0.2505272310567931 Mg
   0.3801185791932620    0.3801186887971638    0.7413293131601987 Sc
  -0.1178839504370681   -0.1178837625216157    0.4997148323443293 Zn
  -0.1208907345129306   -0.1208912063694579    0.0084286188721907 Ag
