Rb2 In2 Cl1
1.0
   6.0243026361531404    0.0257394815739361   -0.0021722308329638
   0.0257394815934665    6.0243026463281586    0.0021722760706954
  -0.0021754517302498    0.0021754968343400    5.9520077193099734
Rb In Cl
2 2 1
direct
   0.0040213915609872   -0.0040213844732485    0.2781004883384289 Rb
   0.3339808098030061    0.6660193956446785    0.9281141362707140 Rb
   0.3313678218844215    0.6686321865027607    0.2566680207257315 In
   0.3328367692464049    0.6671629890528861   -0.0715398764296871 In
   0.3311252075801238    0.6688748130320338    0.4342642310685446 Cl
