Cs1 Au2 Br2
1.0
   6.0061099406475211   -0.1192665192183364    0.3471962756903249
  -0.1162107581659805    6.0949159571731943   -0.0064032123711781
   0.3540512528249637    0.0053108422005876    6.4905893752684154
Cs Au Br
1 2 2
direct
   0.6112798497552711    0.3372307747251310    0.4636329812082501 Cs
   0.1110579500778981   -0.0513966747566939    0.0707111131155240 Au
  -0.0162568667767331    0.5219645904779836   -0.0215455142795171 Au
   0.0520409929298124    0.1823622946099415    0.7689477732087574 Br
   0.1533500676198919    0.6798290171117908    0.3432106555105955 Br
