Ba3 Se2
1.0
   6.0595433054245751   -0.0234091461794455    0.0692992734515011
  -0.0232970069239902    6.0935774844771995   -0.0253511811652512
   0.0678472337236126   -0.0250780239024634    6.4298613092840249
Ba Se
3 2
direct
  -0.0132480795280651    0.4829030012266939    0.2083387882141290 Ba
  -0.0242859979711189    0.0136027986456063   -0.0166161554446453 Ba
   0.0021481506591153    0.5041258321987785    0.6374302878089446 Ba
   0.2768229003828405    0.8359829439610829    0.2786776176597598 Se
   0.0023090259886300    0.5079284191856114    0.1612084582475465 Se
