Ba2 Te1 O1
1.0
   5.5809428678860407   -0.9851104320198987    0.0632678420438251
  -0.9851099885653676    5.5809383474426477   -0.0632676430381437
   0.0836475496265399   -0.0836473590587132    4.8457626881321323
Ba Te O
2 1 1
direct
  -0.0389681624588553    0.0389678866117994    0.6871416495685386 Ba
   0.3122730962158560    0.6877267806581676    0.1777412585137802 Ba
   0.6746593705623694    0.3253407915936342    0.2186146570675400 Te
   0.0520357019152466   -0.0520354658609300    0.1776084321687688 O
