Ba3 Te2 S1
1.0
   5.9729329884012952   -0.0000000000768895    0.0000000148998605
  -0.0000000000767308    5.9830725093403574   -0.0000000014972179
   0.0000000150594521   -0.0000000011902563    6.1288451808381037
Ba Te S
3 2 1
direct
  -0.0000000007846040   -0.0000000001701272    0.8730141932434005 Ba
  -0.0000000194953286    0.4999999960243716    0.2567540060416134 Ba
   0.0000000802972085    0.4999999979878653    0.2954321130381630 Ba
   0.5000000350651300    0.4999999999889607    0.2385166921315903 Te
  -0.0000000960517174    0.5000000060331667    0.2219314559149735 Te
   0.0000000007921398    0.0000000001922092    0.3586095391645555 S
