K2 Te1 O1
1.0
   3.2270926862507907    0.6115077048015076   -0.6022770234411785
   0.3842007552124489    3.7597608511663601    0.3597753048128521
  -0.4744137755982276    0.0264293880413079    9.7616090634749249
K Te O
2 1 1
direct
   0.6030808610580082    0.9427532249847617    0.8124985653489992 K
   0.3153063276447081    0.3373112451076919    0.1622664529822462 K
  -0.0753051502412473    0.7485913743930959    0.4894378463417740 Te
   0.2496229657892808    0.8880111562539014    1.0003191145187784 O
