Ba1 Si2 Pt1
1.0
   6.0000000000000000    0.0000000000000000    0.0000000000000000
   0.0000000000000000    6.0411263826864490    0.0000088645623796
   0.0000000000000000    0.0000104112302570    5.1052423438616703
Ba Si Pt
1 2 1
direct
   0.0000000000000000    0.5000000646100324    0.2953153728827759 Ba
   0.0000000000000000    0.0002121304548838    0.6411955208660920 Si
   0.0000000000000000   -0.0000269789755622    0.2664353499392297 Si
   0.0000000000000000   -0.0001852157544903    0.6981317579933218 Pt
