Rb1 Y1 Cu1 S1
1.0
   5.8325869142518858    0.0235950594200343   -0.1752678646454696
   0.0238825792142949    5.7567170427017835   -0.2125703550083023
  -0.1778523047859605   -0.2163016535324915    6.5196404557359839
Rb Y Cu S
1 1 1 1
direct
   0.3502931700999535    0.6926239723948093    0.7132228817024598 Rb
   0.3158529938710271    0.6506430219896088    0.1796319452400512 Y
   0.3215953515176568    0.6510083543034093    0.2444103930066543 Cu
   0.0641014842507248    0.3396226510715358    0.9374217806779075 S
