Rb1 Na1 Ca1 F2
1.0
   3.6529193312201187    0.2605869858881734   -0.6526674320710588
  -0.0061069348886024    7.3410449649724026    0.0070469162803715
  -0.4014928594908811    0.0045662202936545    7.5263480838393386
Rb Na Ca F
1 1 1 2
direct
  -0.2939821977899660    0.5388654380430928    0.2596715250044350 Rb
   0.1288392943602195    0.0571648582129995    0.4865675997729174 Na
   0.2723089350844507    0.0345169954177040    0.0544362887100860 Ca
   0.2472311211052092    0.2505609661581579    0.2582274046819538 F
  -0.1476041606821762   -0.0886692665214609    0.1911861906320348 F
