Rb1 Na1 Cu1 S1
1.0
   4.3048592432817401    0.9021206501476033    0.3727899250349947
   0.8890705135642640    6.0799196937160565   -0.1730932477931267
   0.4105468244829416   -0.1847985883819885    4.9751547271129590
Rb Na Cu S
1 1 1 1
direct
   0.1472239508575983    0.4501309605335150    0.0671346160159275 Rb
   0.3176636204496555   -0.0584933890053122    0.5889813499574427 Na
   0.6581404087161484    0.3128724449968181    0.5034620099010347 Cu
  -0.1249989810724986    0.0158690008458658    0.2084930263125695 S
