K1 Ca1 H1 Au1
1.0
   6.0000000000000000    0.0000000000000000    0.0000000000000000
   0.0000000000000000    6.8382975124381851   -0.9982578440823855
   0.0000000000000000   -0.6896441594196356    5.4644238469938307
K Ca H Au
1 1 1 1
direct
   0.0000000000000000    0.2520116192370502    0.3047103086112065 K
   0.0000000000000000    0.6852474676999616   -0.0547888590130333 Ca
   0.0000000000000000   -0.0163154476395937    0.7898299085453883 H
   0.0000000000000000   -0.1750626408172636    0.5013386335230484 Au
