Na1 Sr1 Si1 Rh1
1.0
   6.0000000000000000    0.0000000000000000    0.0000000000000000
   0.0000000000000000    5.5942541384571927    0.0000000001746470
   0.0000000000000000    0.0000000000150275    7.7670072953129559
Na Sr Si Rh
1 1 1 1
direct
   0.0000000000000000   -0.0000000000162939    0.4747735938520254 Na
   0.0000000000000000    0.4999999998858186    1.0327787797980450 Sr
   0.0000000000000000   -0.0000000000076929    0.8378199790911089 Si
   0.0000000000000000   -0.0000000000006519    0.1077116612155347 Rh
