Sr1 Si2 Rh1
1.0
   6.0000000000000000    0.0000000000000000    0.0000000000000000
   0.0000000000000000    4.2004072613641137   -0.0000002605743535
   0.0000000000000000    0.0000006724145802    6.8505416669304262
Sr Si Rh
1 2 1
direct
   0.0000000000000000    0.5000000683623180   -0.2104330022549426 Sr
   0.0000000000000000    0.4999999480835968    0.3066751798417931 Si
   0.0000000000000000    0.0000000116236700    1.1290536537559746 Si
   0.0000000000000000   -0.0000000355659654    0.4725851680328024 Rh
