Ba2 Te1 S2 O1
1.0
   6.8910224935728603   -0.0544423608918813    0.1593233975599244
  -0.0628393086392235    5.6394521336643875    0.0328425300848800
   0.1389712437654337    0.0294655124361575    5.1273852933198674
Ba Te S O
2 1 2 1
direct
   0.0662528040673840    0.2723547550422842    0.7666575244644243 Ba
   0.5897036954317671    0.7822516532008151    0.1469058556923994 Ba
   0.0841524539301686    0.7434534334285178    0.2902971612210082 Te
   0.4972898650069996    0.0882901033915508    0.6370986331443075 S
   0.5559120125409175    0.4508326235173200    0.6643719764001335 S
  -0.0628368207002343   -0.0871825690912954    0.0148948642321875 O
