Cs1 Na1 As1 N1
1.0
   6.4970186387165034   -0.0000010054590127    0.0736489274780854
  -0.0000023430579660    3.3848626434012425   -0.0000080198848716
   0.0985167527074590   -0.0000016224832728    6.1939112574726423
Cs Na As N
1 1 1 1
direct
   0.4649652651111530    0.2499989669265706    0.0939776994782543 Cs
  -0.0261464764758939    0.7500013503596197    0.4981249747231275 Na
  -0.0255745642898392    0.7500021772457667    1.0216833972130368 As
  -0.0042812150734717    0.2499975022269074    0.2012089511610911 N
