Cs2 Na3 Li1 As1
1.0
   6.3482584711802179    0.0000000001186010    0.1130103285345847
   0.0000000001194626    6.2449406722431995   -0.0000000000953753
   0.1121659221745486   -0.0000000000950646    6.2949866899768043
Cs Na Li As
2 3 1 1
direct
   0.0093499101460316   -0.0000000001029383    0.3663008853427663 Cs
   0.0164614509619047    0.5000000001018731    0.6479802515106007 Cs
   0.1343200147749530   -0.0000000000486355    0.4439973486741412 Na
   0.3128970722827278    0.0000000000058143    0.0518807840332696 Na
   0.5091884236305995    0.4999999999779673    0.9392888825517735 Na
   0.3015247910640571    0.0000000000000648    0.0703570745188696 Li
   0.4644053402031776   -0.0000000000193165    0.4712207722482326 As
