Ba3 Te2 S1
1.0
   5.6817236792914958    0.0000000956350187    0.0000006567251590
   0.0000000986198836    5.5520227443230192   -0.0000000215265846
   0.0000004127886708   -0.0000000391559267    9.6427281894974133
Ba Te S
3 2 1
direct
   0.0000000956976339   -0.0000000082837610    0.5815963114564625 Ba
   0.4999996667519003    0.4999998650626453    0.3370650533557307 Ba
  -0.0000001244556283   -0.0000000130699245    1.0106732107300453 Ba
   0.5000004476924395    0.5000001411455939    0.3117645330754346 Te
  -0.0000001539595901    0.5000000039341772    0.1984072091210161 Te
   0.0000000673639758    0.0000000121331165    0.3020366697802366 S
